 vasp.5.4.4.18Apr17-6-g9f103f2a35 (build May 01 2020 14:57:12) complex

 executed on             LinuxIFC date 2020.10.20  05:48:22

 INCAR:
 POTCAR:    PAW_PBE B 06Sep2000
 POTCAR:    PAW_PBE N 08Apr2002
 POTCAR:    PAW_PBE C 08Apr2002
 POTCAR:    PAW_PBE F 08Apr2002
 POTCAR:    PAW_PBE O 08Apr2002

 POTCAR:    PAW_PBE B 06Sep2000
   VRHFIN =B: s2p1

   TITEL  = PAW_PBE B 06Sep2000
   POMASS =   10.811; ZVAL   =    3.000    mass and valenz
   ENMAX  =  318.614; ENMIN  =  238.960 eV

 POTCAR:    PAW_PBE N 08Apr2002
   VRHFIN =N: s2p3

   TITEL  = PAW_PBE N 08Apr2002
   POMASS =   14.001; ZVAL   =    5.000    mass and valenz
   ENMAX  =  400.000; ENMIN  =  300.000 eV

 POTCAR:    PAW_PBE C 08Apr2002
   VRHFIN =C: s2p2

[...]

 POTCAR:    PAW_PBE F 08Apr2002
   VRHFIN =F: s2p5

[...]

 POTCAR:    PAW_PBE O 08Apr2002
   VRHFIN =O: s2p4

   TITEL  = PAW_PBE O 08Apr2002
   POMASS =   16.000; ZVAL   =    6.000    mass and valenz
   ENMAX  =  400.000; ENMIN  =  300.000 eV

 Optimization of the real space projectors (new method)

 maximal supplied QI-value         = 22.11
 optimisation between [QCUT,QGAM] = [ 11.94, 23.88] = [ 39.92,159.67] Ry
 Optimized for a Real-space Cutoff    1.18 Angstroem

   l    n(q)    QCUT    max X(q) W(low)/X(q) W(high)/X(q)  e(spline)
   0      8    11.939    53.033    0.11E-03    0.34E-03    0.60E-07
   0      8    11.939    34.740    0.11E-03    0.34E-03    0.59E-07
   1      8    11.939    30.949    0.22E-03    0.20E-03    0.17E-06
   1      8    11.939    19.518    0.20E-03    0.18E-03    0.16E-06
 Optimization of the real space projectors (new method)

[...]

   l    n(q)    QCUT    max X(q) W(low)/X(q) W(high)/X(q)  e(spline)
   0      8    11.883    14.049    0.56E-04    0.86E-04    0.22E-06
   0      8    11.883     8.945    0.81E-04    0.11E-03    0.30E-06
   1      8    11.883     7.086    0.16E-03    0.15E-04    0.31E-06
   1      8    11.883     6.747    0.15E-03    0.14E-04    0.28E-06
 Optimization of the real space projectors (new method)

 maximal supplied QI-value         = 24.76
 optimisation between [QCUT,QGAM] = [ 11.88, 24.01] = [ 39.54,161.47] Ry
 Optimized for a Real-space Cutoff    1.18 Angstroem

   l    n(q)    QCUT    max X(q) W(low)/X(q) W(high)/X(q)  e(spline)
   0      8    11.883    20.381    0.86E-04    0.11E-03    0.31E-06
   0      8    11.883    15.268    0.94E-04    0.12E-03    0.33E-06
   1      8    11.883     5.964    0.19E-03    0.18E-04    0.33E-06
   1      8    11.883     5.382    0.17E-03    0.20E-04    0.29E-06
  PAW_PBE B 06Sep2000                   :
  PAW_PBE N 08Apr2002                   :
  PAW_PBE C 08Apr2002                   :
  PAW_PBE F 08Apr2002                   :
  PAW_PBE O 08Apr2002                   :

 POSCAR: B N C F O
  positions in direct lattice
  velocities in cartesian coordinates

 METAGGA = SCAN     LMAXTAU =  6    LMIXTAU =  F

 ion  position               nearest neighbor table
   1  0.167  0.083  0.502-  17 1.45  20 1.45  21 1.45
   2  0.167  0.333  0.502-  17 1.45  18 1.45  22 1.45
   3  0.167  0.583  0.502-  18 1.45  19 1.45  23 1.45
   4  0.167  0.833  0.502-  20 1.45  19 1.45  24 1.45
   5  0.417  0.083  0.502-  21 1.45  25 1.45  24 1.45
   6  0.417  0.333  0.502-  21 1.45  22 1.45  26 1.45
   7  0.417  0.583  0.502-  22 1.45  27 1.45  23 1.45
   8  0.417  0.834  0.502-  28 1.45  24 1.45  23 1.45
   9  0.667  0.083  0.502-  29 1.45  28 1.45  25 1.45
  10  0.667  0.333  0.502-  30 1.45  25 1.45  26 1.45
  11  0.667  0.583  0.502-  31 1.45  26 1.45  27 1.45
  12  0.667  0.834  0.502-  32 1.45  28 1.45  27 1.45
  13  0.917  0.083  0.502-  17 1.45  29 1.45  32 1.45
  14  0.917  0.333  0.502-  29 1.45  30 1.45  18 1.45
  15  0.917  0.583  0.502-  30 1.45  19 1.45  31 1.45
  16  0.917  0.833  0.502-  20 1.45  32 1.45  31 1.45
  17  0.083  0.167  0.502-   2 1.45   1 1.45  13 1.45
  18  0.083  0.417  0.502-   3 1.45   2 1.45  14 1.45
  19  0.083  0.667  0.502-   3 1.45   4 1.45  15 1.45
  20  0.083  0.917  0.502-   4 1.45  16 1.45   1 1.45
  21  0.333  0.167  0.502-   6 1.45   5 1.45   1 1.45
  22  0.333  0.417  0.502-   7 1.45   6 1.45   2 1.45
  23  0.333  0.667  0.502-   7 1.45   8 1.45   3 1.45
  24  0.333  0.917  0.502-   8 1.45   5 1.45   4 1.45
  25  0.583  0.167  0.502-  10 1.45   5 1.45   9 1.45
  26  0.583  0.417  0.502-   6 1.45  11 1.45  10 1.45
  27  0.583  0.667  0.502-   7 1.45  11 1.45  12 1.45
  28  0.583  0.917  0.502-   8 1.45  12 1.45   9 1.45
  29  0.833  0.167  0.502-   9 1.45  14 1.45  13 1.45
  30  0.833  0.417  0.502-  10 1.45  15 1.45  14 1.45
  31  0.833  0.667  0.502-  11 1.45  15 1.45  16 1.45
  32  0.833  0.917  0.502-  12 1.45  16 1.45  13 1.45
  33  0.564  0.447  0.653-  36 1.34  38 1.34  37 1.35  34 1.51
  34  0.547  0.398  0.612-  39 1.33  40 1.33  33 1.51
  35  0.472  0.787  0.606-  41 1.16  42 1.16
  36  0.699  0.577  0.659-  33 1.34
  37  0.560  0.339  0.677-  33 1.35
  38  0.450  0.473  0.663-  33 1.34
  39  0.662  0.382  0.599-  34 1.33
  40  0.411  0.278  0.604-  34 1.33
  41  0.603  0.868  0.602-  35 1.16
  42  0.340  0.707  0.611-  35 1.16

IMPORTANT INFORMATION: All symmetrisations will be switched off!
NOSYMM: (Re-)initialisation of all symmetry stuff for point group C_1.

 KPOINTS: K-Point Grid

Automatic generation of k-mesh.
Space group operators:
 irot       det(A)        alpha          n_x          n_y          n_z        tau_x        tau_y        tau_z
    1     1.000000     0.000000     1.000000     0.000000     0.000000     0.000000     0.000000     0.000000

 Subroutine IBZKPT returns following result:

 Found     24 irreducible k-points:

 Following reciprocal coordinates:
            Coordinates               Weight
  0.125000  0.125000  0.000000     16.000000
  0.250000 -0.125000  0.000000     16.000000
  0.125000 -0.250000  0.000000     16.000000
  0.375000  0.125000  0.000000     16.000000
  0.500000 -0.375000  0.000000     16.000000
  0.125000  0.500000  0.000000     16.000000
 -0.125000 -0.375000  0.000000     16.000000
  0.375000  0.500000  0.000000     16.000000
  0.500000 -0.125000  0.000000     16.000000
 -0.375000  0.125000  0.000000     16.000000
 -0.250000  0.375000  0.000000     16.000000
  0.125000  0.250000  0.000000     16.000000
 -0.125000  0.375000  0.000000     16.000000
 -0.375000  0.250000  0.000000     16.000000
 -0.250000 -0.125000  0.000000     16.000000
 -0.125000  0.125000  0.000000     16.000000
  0.000000  0.125000  0.000000     16.000000
  0.125000  0.000000  0.000000     16.000000
  0.375000  0.375000  0.000000     16.000000
 -0.250000 -0.375000  0.000000     16.000000
  0.375000  0.250000  0.000000     16.000000
 -0.375000  0.375000  0.000000     16.000000
  0.000000  0.375000  0.000000     16.000000
  0.375000  0.000000  0.000000     16.000000

 Following cartesian coordinates:
            Coordinates               Weight
  0.024879  0.000000  0.000000     16.000000
  0.012439 -0.021546  0.000000     16.000000
 -0.012439 -0.021546  0.000000     16.000000
  0.049758 -0.014364  0.000000     16.000000
  0.012439 -0.050273  0.000000     16.000000
  0.062197  0.021546  0.000000     16.000000
 -0.049758 -0.014364  0.000000     16.000000
  0.087076  0.007182  0.000000     16.000000
  0.037318 -0.035909  0.000000     16.000000
 -0.024879  0.028727  0.000000     16.000000
  0.012439  0.035909  0.000000     16.000000
  0.037318  0.007182  0.000000     16.000000
  0.024879  0.028727  0.000000     16.000000
 -0.012439  0.035909  0.000000     16.000000
 -0.037318  0.007182  0.000000     16.000000
  0.000000  0.014364  0.000000     16.000000
  0.012439  0.007182  0.000000     16.000000
  0.012439 -0.007182  0.000000     16.000000
  0.074636  0.000000  0.000000     16.000000
 -0.062197 -0.007182  0.000000     16.000000
  0.062197 -0.007182  0.000000     16.000000
  0.000000  0.043091  0.000000     16.000000
  0.037318  0.021546  0.000000     16.000000
  0.037318 -0.021546  0.000000     16.000000

 SYSTEM =  SiC
 POSCAR =  B N C F O

 Startparameter for this run:
   NWRITE =      2    write-flag & timer
   PREC   = accura    normal or accurate (medium, high low for compatibility)
   ISTART =      1    job   : 0-new  1-cont  2-samecut
   ICHARG =      0    charge: 1-file 2-atom 10-const
   ISPIN  =      2    spin polarized calculation?
   LNONCOLLINEAR =      F non collinear calculations
   LSORBIT =      F    spin-orbit coupling
   INIWAV =      1    electr: 0-lowe 1-rand  2-diag
   LASPH  =      T    aspherical Exc in radial PAW
   METAGGA=      F    non-selfconsistent MetaGGA calc.

 Electronic Relaxation 1
   ENCUT  =  550.0 eV  40.42 Ry    6.36 a.u.  19.22 19.22 67.15*2*pi/ulx,y,z
   ENINI  =  550.0     initial cutoff
   ENAUG  =  644.9 eV  augmentation charge cutoff
   NELM   =    100;   NELMIN=  2; NELMDL=  0     # of ELM steps
   EDIFF  = 0.1E-04   stopping-criterion for ELM
   LREAL  =      T    real-space projection
   NLSPLINE    = F    spline interpolate recip. space projectors
   LCOMPAT=      F    compatible to vasp.4.4
   GGA_COMPAT  = T    GGA compatible to vasp.4.4-vasp.4.6
   LMAXPAW     = -100 max onsite density
   LMAXMIX     =    2 max onsite mixed and CHGCAR
   VOSKOWN=      0    Vosko Wilk Nusair interpolation
   ROPT   =   -0.00025  -0.00025  -0.00025  -0.00025
   ROPT   =   -0.00025
 Ionic relaxation
   EDIFFG = -.2E-01   stopping-criterion for IOM
   NSW    =    500    number of steps for IOM
   NBLOCK =      1;   KBLOCK =    500    inner block; outer block
   IBRION =      2    ionic relax: 0-MD 1-quasi-New 2-CG
   NFREE  =      1    steps in history (QN), initial steepest desc. (CG)
   ISIF   =      2    stress and relaxation
   IWAVPR =     11    prediction:  0-non 1-charg 2-wave 3-comb
   ISYM   =      0    0-nonsym 1-usesym 2-fastsym
   LCORR  =      T    Harris-Foulkes like correction to forces

   POTIM  = 0.5000    time-step for ionic-motion
   TEIN   =    0.0    initial temperature
   TEBEG  =    0.0;   TEEND  =   0.0 temperature during run
   SMASS  =  -3.00    Nose mass-parameter (am)
   estimated Nose-frequenzy (Omega)   =  0.10E-29 period in steps =****** mass=  -0.231E-26a.u.
   SCALEE = 1.0000    scale energy and forces
   NPACO  =    256;   APACO  = 16.0  distance and # of slots for P.C.
   PSTRESS=    0.0 pullay stress

  Mass of Ions in am
   POMASS =  10.81 14.00 12.01 19.00 16.00
  Ionic Valenz
   ZVAL   =   3.00  5.00  4.00  7.00  6.00
  Atomic Wigner-Seitz radii
  virtual crystal weights
   VCA    =   1.00  1.00  1.00  1.00  1.00
   NELECT =     186.4000    total number of electrons
   NUPDOWN=      -1.0000    fix difference up-down

 DOS related values:
   EMIN   =  10.00;   EMAX   =-10.00  energy-range for DOS
   EFERMI =   0.00
   ISMEAR =     0;   SIGMA  =   0.05  broadening in eV -4-tet -1-fermi 0-gaus

 Electronic relaxation 2 (details)
   IALGO  =     68    algorithm
   LDIAG  =      T    sub-space diagonalisation (order eigenvalues)
   LSUBROT=      F    optimize rotation matrix (better conditioning)
   TURBO    =      0    0=normal 1=particle mesh
   IRESTART =      0    0=no restart 2=restart with 2 vectors
   NREBOOT  =      0    no. of reboots
   NMIN     =      0    reboot dimension
   EREF     =   0.00    reference energy to select bands
[...]

[...]

 spin component 2

[...]

 k-point    24 :       0.3750    0.0000    0.0000
  band No.  band energies     occupation
      1     -35.8174      1.00000
      2     -34.9875      1.00000
      3     -33.6819      1.00000
      4     -33.4182      1.00000
      5     -33.3254      1.00000
      6     -30.9454      1.00000
      7     -29.9452      1.00000
      8     -25.1426      1.00000
      9     -24.8377      1.00000
     10     -24.3959      1.00000
     11     -24.3937      1.00000
     12     -23.5768      1.00000
     13     -23.5748      1.00000
     14     -23.2197      1.00000
     15     -23.0857      1.00000
     16     -23.0839      1.00000
     17     -22.6288      1.00000
     18     -22.2647      1.00000
     19     -22.2636      1.00000
     20     -22.2191      1.00000
     21     -22.2186      1.00000
     22     -21.7659      1.00000
     23     -21.7647      1.00000
     24     -20.7109      1.00000
     25     -17.9005      1.00000
     26     -16.3131      1.00000
     27     -16.2568      1.00000
     28     -15.9769      1.00000
     29     -15.5690      1.00000
     30     -15.5686      1.00000
     31     -15.2700      1.00000
     32     -15.1255      1.00000
     33     -15.1041      1.00000
     34     -15.1037      1.00000
     35     -15.0743      1.00000
     36     -15.0721      1.00000
     37     -14.5166      1.00000
     38     -14.0243      1.00000
     39     -13.7057      1.00000
     40     -13.7051      1.00000
     41     -13.5338      1.00000
     42     -13.4254      1.00000
     43     -13.4251      1.00000
     44     -13.3482      1.00000
     45     -13.1586      1.00000
     46     -13.1312      1.00000
     47     -13.0472      1.00000
     48     -13.0464      1.00000
     49     -12.8169      1.00000
     50     -12.5241      1.00000
     51     -12.4420      1.00000
     52     -12.0415      1.00000
     53     -12.0405      1.00000
     54     -11.9917      1.00000
     55     -11.7289      1.00000
     56     -11.6776      1.00000
     57     -11.4618      1.00000
     58     -11.4529      1.00000
     59     -11.4520      1.00000
     60     -11.3911      1.00000
[...]
    130       1.6086      0.00000
    131       1.6271      0.00000
    132       1.6791      0.00000
    133       1.6926      0.00000
    134       1.7884      0.00000
    135       1.8856      0.00000
    136       1.9290      0.00000
    137       1.9804      0.00000
    138       2.0711      0.00000
    139       2.0859      0.00000
    140       2.2432      0.00000
    141       2.2787      0.00000
    142       2.3016      0.00000
    143       2.4274      0.00000
    144       2.5079      0.00000

[...]

 soft charge-density along one line, spin component           2
         0         1         2         3         4         5         6         7         8         9
 total charge-density along one line

------------------------ aborting loop because EDIFF is reached ----------------------------------------

[...]

  FORCE on cell =-STRESS in cart. coord.  units (eV):
  Direction    XX          YY          ZZ          XY          YZ          ZX
  Alpha Z    57.55240    57.55240    57.55240
  Ewald   68855.26064 68952.36935-72874.24762   -26.61169   151.14082    42.75727
  Hartree 69246.52855 69649.78070-65819.44989   182.39889    72.02352    66.93940
  E(xc)    -832.45879  -832.29155  -837.41899     0.15184     0.07156     0.14906
  Local  ************************136220.29492  -197.68128  -214.02817  -120.17156
  n-local  -490.74926  -486.69751  -482.18090     2.01927     0.04014     0.95657
  augment   118.73150   122.09394   130.11756     2.78452    -0.40801     0.90269
  Kinetic  3254.96014  3311.64426  3604.67376    38.37146    -9.23873     8.57785
  Fock        0.00000     0.00000     0.00000     0.00000     0.00000     0.00000
  Total     -13.88077   -11.66243    -0.65875     1.43301    -0.39888     0.11128
  in kB      -7.24236    -6.08493    -0.34371     0.74768    -0.20812     0.05806

 VOLUME and BASIS-vectors are now :
  energy-cutoff  :      550.00
  volume of cell :     3070.74
      direct lattice vectors                 reciprocal lattice vectors
     5.024366704 -8.702497373  0.000000000     0.099515029 -0.057454772  0.000000000
     5.024366704  8.702497373  0.000000000     0.099515029  0.057454772  0.000000000
     0.000000000  0.000000000 35.114664386     0.000000000  0.000000000  0.028478131

  length of vectors
    10.048767154 10.048767154 35.114664386     0.114909929  0.114909929  0.028478131

 FORCES acting on ions
    electron-ion (+dipol)            ewald-force                    non-local-force                 convergence-correction
   0.119E+02 -.388E+01 0.127E+03   -.119E+02 0.393E+01 -.127E+03   0.103E-01 -.700E-02 0.178E-02   0.557E-03 -.229E-03 -.374E-03
   0.112E+02 -.628E+01 0.128E+03   -.113E+02 0.632E+01 -.128E+03   0.153E-01 -.775E-02 0.382E-02   0.765E-03 -.339E-03 0.300E-03
   0.737E+01 -.503E+01 0.130E+03   -.746E+01 0.508E+01 -.130E+03   0.169E-01 -.114E-01 0.257E-02   0.111E-03 0.403E-04 -.266E-03
   0.479E+01 -.509E+01 0.125E+03   -.485E+01 0.512E+01 -.125E+03   0.662E-02 -.905E-02 0.114E-02   0.340E-03 -.578E-03 0.405E-03
   0.112E+02 0.171E+01 0.141E+03   -.112E+02 -.166E+01 -.141E+03   0.362E-02 -.188E-02 0.260E-02   0.105E-02 -.180E-03 -.890E-04
   0.107E+02 -.596E+01 0.156E+03   -.108E+02 0.592E+01 -.156E+03   0.168E-01 -.516E-02 -.384E-02   0.406E-03 -.358E-03 -.113E-02
   0.565E+01 -.630E+01 0.148E+03   -.568E+01 0.631E+01 -.148E+03   0.809E-02 0.179E-02 0.109E-02   0.524E-03 -.759E-03 -.131E-03
   0.318E+01 -.735E+01 0.146E+03   -.317E+01 0.735E+01 -.146E+03   -.459E-02 -.174E-01 -.167E-01   0.389E-05 -.414E-04 -.854E-03
   -.680E+01 0.603E+01 0.137E+03   0.690E+01 -.609E+01 -.137E+03   -.144E-01 0.384E-02 -.288E-03   0.370E-03 0.720E-03 -.797E-03
   -.493E+01 0.122E+02 0.153E+03   0.496E+01 -.122E+02 -.153E+03   -.675E-02 0.188E-01 -.947E-04   -.682E-03 0.147E-03 -.898E-03
   -.131E+02 0.507E-01 0.149E+03   0.132E+02 -.109E+00 -.149E+03   -.199E-01 0.400E-02 0.633E-02   -.406E-03 0.107E-03 -.103E-02
   -.118E+02 0.309E+01 0.143E+03   0.119E+02 -.309E+01 -.143E+03   -.215E-01 0.524E-02 -.507E-02   -.591E-03 -.159E-03 -.676E-03
   -.505E+01 0.262E+01 0.122E+03   0.501E+01 -.259E+01 -.122E+03   -.424E-02 -.186E-02 0.226E-02   -.719E-03 0.480E-03 -.468E-03
   -.377E+01 0.776E+01 0.125E+03   0.375E+01 -.776E+01 -.125E+03   0.712E-04 0.336E-02 0.173E-02   -.562E-03 0.443E-03 -.619E-03
   -.110E+02 0.486E+01 0.131E+03   0.110E+02 -.490E+01 -.131E+03   -.503E-02 0.237E-02 0.226E-02   -.852E-03 0.273E-03 -.746E-03
   -.952E+01 0.170E+01 0.125E+03   0.954E+01 -.166E+01 -.124E+03   -.872E-02 -.637E-03 0.997E-03   -.661E-03 0.192E-03 -.405E-03
   0.123E+02 -.554E+01 0.205E+03   -.124E+02 0.558E+01 -.205E+03   0.879E-02 -.235E-02 -.285E-02   0.710E-03 -.839E-03 0.912E-03
   0.955E+01 -.200E+01 0.208E+03   -.962E+01 0.205E+01 -.207E+03   0.847E-02 -.577E-02 -.958E-02   0.113E-02 0.982E-03 0.685E-03
   0.394E+00 -.437E+01 0.209E+03   -.463E+00 0.435E+01 -.209E+03   -.474E-02 -.117E-01 -.201E-02   0.345E-03 -.138E-02 0.659E-03
   0.435E+01 -.347E+01 0.203E+03   -.438E+01 0.353E+01 -.203E+03   -.168E-02 -.486E-02 -.235E-02   0.599E-03 0.309E-03 0.944E-03
   0.279E+02 -.392E+01 0.239E+03   -.279E+02 0.396E+01 -.238E+03   0.451E-01 -.301E-02 0.853E-02   0.441E-02 -.724E-04 -.421E-02
   0.193E+02 -.162E+02 0.239E+03   -.195E+02 0.162E+02 -.239E+03   0.367E-01 -.261E-01 -.198E-01   0.234E-02 -.312E-02 0.196E-02
   0.141E+02 -.126E+02 0.237E+03   -.142E+02 0.127E+02 -.237E+03   0.420E-01 -.268E-01 0.112E-01   0.200E-02 -.177E-03 -.350E-02
   0.131E+02 -.996E+01 0.225E+03   -.132E+02 0.100E+02 -.224E+03   0.176E-01 -.430E-01 0.115E-01   0.161E-02 -.140E-02 0.267E-02
   0.318E+01 0.160E+02 0.240E+03   -.305E+01 -.160E+02 -.240E+03   0.137E-01 0.140E-01 -.303E-01   0.135E-02 0.132E-02 0.246E-02
   -.645E+01 0.190E+01 0.265E+03   0.643E+01 -.207E+01 -.265E+03   -.117E-01 0.552E-02 -.563E-01   -.220E-02 -.413E-03 -.669E-02
   -.120E+02 -.137E+01 0.246E+03   0.122E+02 0.138E+01 -.246E+03   -.185E-01 0.449E-02 -.265E-01   0.175E-03 0.130E-02 0.275E-02
   -.119E+02 -.113E+01 0.242E+03   0.121E+02 0.988E+00 -.242E+03   -.371E-01 -.368E-02 0.531E-01   -.652E-03 -.115E-02 -.451E-02
   -.117E+02 0.118E+02 0.210E+03   0.117E+02 -.118E+02 -.210E+03   -.163E-01 0.717E-02 0.676E-02   -.170E-02 0.227E-02 -.290E-02
   -.168E+02 0.196E+02 0.228E+03   0.168E+02 -.196E+02 -.228E+03   -.281E-01 0.197E-01 -.169E-02   -.246E-02 0.235E-02 -.275E-02
   -.257E+02 0.506E+01 0.224E+03   0.258E+02 -.511E+01 -.224E+03   -.390E-01 0.112E-01 0.132E-01   -.235E-02 0.442E-03 -.320E-02
   -.196E+02 0.639E+01 0.213E+03   0.197E+02 -.630E+01 -.213E+03   -.321E-01 0.127E-01 -.128E-01   -.293E-02 0.194E-02 -.622E-03
   -.331E+01 0.501E+01 -.397E+03   0.926E+00 -.750E+01 0.391E+03   0.239E+01 0.228E+01 0.816E+01   0.489E-03 0.126E-03 -.210E-02
   -.590E+02 -.893E+02 -.256E+03   0.674E+02 0.100E+03 0.260E+03   -.851E+01 -.116E+02 -.171E+01   0.277E-04 -.114E-03 -.369E-04
   -.138E+02 -.444E+02 -.359E+03   0.137E+02 0.444E+02 0.360E+03   -.244E-01 -.371E-01 -.120E+00   0.481E-02 -.307E-02 -.175E-02
   -.512E+03 0.254E+02 -.837E+03   0.571E+03 -.279E+02 0.850E+03   -.576E+02 0.197E+01 -.842E+01   -.194E-02 0.168E-03 -.264E-02
   0.193E+03 0.325E+03 -.110E+04   -.217E+03 -.363E+03 0.114E+04   0.232E+02 0.371E+02 -.352E+02   0.761E-02 -.468E-03 -.690E-02
   0.167E+03 -.425E+03 -.919E+03   -.187E+03 0.478E+03 0.939E+03   0.191E+02 -.527E+02 -.155E+02   0.266E-02 -.661E-02 0.224E-02
   -.174E+03 0.352E+03 -.382E+03   0.197E+03 -.404E+03 0.363E+03   -.223E+02 0.501E+02 0.216E+02   -.313E-03 -.184E-02 -.120E-02
   0.425E+03 -.630E+02 -.440E+03   -.483E+03 0.702E+02 0.429E+03   0.569E+02 -.689E+01 0.142E+02   -.623E-02 0.126E-02 0.346E-02
   -.281E+03 0.637E+02 -.495E+03   0.345E+03 -.903E+02 0.488E+03   -.607E+02 0.253E+02 0.901E+01   -.646E-02 0.326E-02 0.416E-02
   0.244E+03 -.172E+03 -.578E+03   -.308E+03 0.199E+03 0.589E+03   0.609E+02 -.252E+02 -.848E+01   -.105E-01 -.178E-02 -.692E-02
   -.132E+02 -.204E+02 0.165E+02   0.568E-13 0.284E-12 -.455E-12   0.132E+02 0.202E+02 -.165E+02   -.780E-02 -.693E-02 -.348E-01

 POSITION                                       TOTAL-FORCE (eV/Angst)
      1.25609     -0.72307     17.63207        -0.003365      0.002551      0.000490
      2.51209      1.45259     17.63305        -0.002761     -0.000380     -0.001513
      3.76824      3.62823     17.63225        -0.002764      0.002570      0.001703
      5.02445      5.80391     17.63114        -0.001276     -0.000962     -0.001809
      2.51243     -2.89872     17.63070        -0.002439     -0.001610      0.001461
      3.76809     -0.72308     17.63110        -0.003816      0.003055      0.009586
      5.02446      1.45234     17.63058        -0.001526     -0.001612      0.002264
      6.28090      3.62862     17.62430        -0.003268      0.003457      0.006660
      3.76882     -5.07459     17.63048         0.004930      0.000686      0.003693
      5.02476     -2.89932     17.63295         0.001618     -0.004927      0.007736
      6.28116     -0.72334     17.63432         0.005020     -0.000419      0.005853
      7.53735      1.45237     17.62906         0.001455     -0.004028      0.004621
      5.02469     -7.25005     17.63216         0.001153     -0.001661      0.000542
      6.28071     -5.07460     17.63322        -0.000493     -0.001204      0.000889
      7.53689     -2.89895     17.63345         0.000574     -0.000451      0.002420
      8.79306     -0.72320     17.63278         0.000163     -0.000646     -0.000187
      1.25631      0.72726     17.63266         0.001813     -0.001529     -0.000080
      2.51247      2.90284     17.63331         0.002251      0.000611      0.000030
      3.76858      5.07844     17.63250         0.000450     -0.001832     -0.001207
      5.02457      7.25414     17.63216         0.001948      0.001038      0.000376
      2.51239     -1.44835     17.63181         0.007245     -0.000243     -0.000671
      3.76847      0.72725     17.63319         0.004558     -0.003880     -0.005427
      5.02489      2.90288     17.63100         0.006350     -0.001288     -0.002018
      6.28068      5.07870     17.62866         0.003869     -0.004345     -0.004450
      3.76856     -3.62401     17.63320         0.001006      0.002487     -0.004871
      5.02449     -1.44837     17.63788        -0.001880     -0.000615     -0.002579
      6.28079      0.72731     17.63413        -0.000753      0.002905     -0.006394
      7.53668      2.90294     17.62727        -0.002504     -0.001185     -0.003703
      5.02465     -5.79968     17.63192        -0.004368      0.002071      0.001683
      6.28072     -3.62408     17.63381        -0.003718      0.005252      0.000382
      7.53685     -1.44844     17.63374        -0.005882      0.000271      0.001771
      8.79295      0.72720     17.63187        -0.003963      0.004565     -0.002055
      5.08319     -1.02023     22.94329        -0.000731      0.000557     -0.000227
      4.74922     -1.29834     21.49959         0.001457      0.005156     -0.004021
      6.32781      2.74600     21.29478         0.006971     -0.000289     -0.005023
      6.41081     -1.07005     23.12551        -0.005939      0.000918     -0.002956
      4.51910     -1.92006     23.78220        -0.000507      0.005232     -0.003378
      4.63673      0.19654     23.28950         0.002940     -0.005545     -0.008082
      5.24277     -2.43900     21.03597         0.002195     -0.008203     -0.003135
      3.46430     -1.15804     21.20147        -0.001417     -0.002407     -0.004590
      7.39137      2.30087     21.13537        -0.005513      0.002000      0.004589
      5.26129      3.18763     21.44184         0.000918      0.003878      0.011629
    total drift:                               -0.032570     -0.149574     -0.074906

  FREE ENERGIE OF THE ION-ELECTRON SYSTEM (eV)
  free  energy   TOTEN  =      -383.57383409 eV

  energy  without entropy=     -383.56750712  energy(sigma->0) =     -383.57067061

 d Force = 0.1474216E-04[ 0.110E-05, 0.284E-04]  d Energy = 0.4563499E-06 0.143E-04
 d Force =-0.4379117E+00[-0.438E+00,-0.438E+00]  d Ewald  =-0.4379117E+00-0.483E-08

 Conjugate gradient step on ions:
 trial-energy change:   -0.000000  1 .order   -0.000015   -0.000028   -0.000001
  (g-gl).g = 0.171E-03      g.g   = 0.167E-03  gl.gl    = 0.149E-03
 g(Force)  = 0.167E-03   g(Stress)= 0.000E+00 ortho     =-0.597E-05
 gamma     =   1.14999
 trial     =   0.17764
 opt step  =   0.18479  (harmonic =   0.18479) maximal distance =0.00027560
 next E    =  -383.573848   (d E  =  -0.00001)

 reached required accuracy - stopping structural energy minimisation
 writing wavefunctions

 total charge

[...]

 magnetization (x)

# of ion       s       p       d       tot
    1        0.000   0.000   0.000   0.000
    2        0.000   0.000   0.000   0.000
    3        0.000   0.000   0.000   0.000
    4        0.000   0.000   0.000   0.000
    5        0.000   0.000   0.000   0.000
    6        0.000   0.000   0.000   0.000
    7        0.000   0.000   0.000   0.000
    8        0.000   0.000   0.000   0.000
    9        0.000   0.000   0.000   0.000
   10        0.000   0.000   0.000   0.000
   11        0.000   0.000   0.000   0.000
   12       -0.000   0.000   0.000   0.000
   13        0.000   0.000   0.000   0.000
   14        0.000   0.000   0.000   0.000
   15        0.000   0.000   0.000   0.000
   16        0.000   0.000   0.000   0.000
   17       -0.000  -0.000   0.000  -0.000
   18        0.000   0.000   0.000   0.000
   19       -0.000  -0.000   0.000  -0.000
   20       -0.000  -0.000   0.000  -0.000
   21       -0.000  -0.000   0.000  -0.000
   22       -0.000  -0.000   0.000  -0.000
   23       -0.000  -0.000   0.000  -0.000
   24       -0.000  -0.000   0.000  -0.000
   25       -0.000  -0.000   0.000  -0.000
   26       -0.000  -0.000   0.000  -0.000
   27        0.000   0.000   0.000   0.000
   28       -0.000  -0.000   0.000  -0.000
   29       -0.000  -0.000   0.000  -0.000
   30       -0.000  -0.000   0.000  -0.000
   31       -0.000  -0.000   0.000  -0.000
   32        0.000   0.000   0.000   0.000
   33        0.004   0.010   0.000   0.015
   34        0.071   0.377   0.000   0.447
   35       -0.000   0.000   0.000   0.000
   36       -0.000  -0.000   0.000  -0.001
   37        0.001   0.030   0.000   0.031
   38       -0.000  -0.000   0.000  -0.001
   39        0.003   0.077   0.000   0.080
   40        0.003   0.077   0.000   0.080
   41        0.000   0.000   0.000   0.000
   42        0.000  -0.000   0.000  -0.000
tot          0.081   0.569   0.000   0.651