 vasp.5.4.4.18Apr17-6-g9f103f2a35 (build May 01 2020 14:57:12) complex

 executed on             LinuxIFC date 2021.08.03  10:21:26

 INCAR:
 POTCAR:    PAW_PBE B 06Sep2000
 POTCAR:    PAW_PBE C 08Apr2002
 POTCAR:    PAW_PBE F 08Apr2002
 POTCAR:    PAW_PBE H 15Jun2001
 POTCAR:    PAW_PBE N 08Apr2002
 POTCAR:    PAW_PBE O 08Apr2002

 POTCAR:    PAW_PBE B 06Sep2000
   VRHFIN =B: s2p1

   TITEL  = PAW_PBE B 06Sep2000
   POMASS =   10.811; ZVAL   =    3.000    mass and valenz
   ENMAX  =  318.614; ENMIN  =  238.960 eV

 POTCAR:    PAW_PBE C 08Apr2002
   VRHFIN =C: s2p2

   TITEL  = PAW_PBE C 08Apr2002
   POMASS =   12.011; ZVAL   =    4.000    mass and valenz
   ENMAX  =  400.000; ENMIN  =  300.000 eV

 POTCAR:    PAW_PBE F 08Apr2002
   VRHFIN =F: s2p5

[...]

 POTCAR:    PAW_PBE H 15Jun2001
   VRHFIN =H: ultrasoft test

   TITEL  = PAW_PBE H 15Jun2001
   POMASS =    1.000; ZVAL   =    1.000    mass and valenz
   ENMAX  =  250.000; ENMIN  =  200.000 eV

 POTCAR:    PAW_PBE N 08Apr2002
   VRHFIN =N: s2p3

[...]

 POTCAR:    PAW_PBE O 08Apr2002
   VRHFIN =O: s2p4

   TITEL  = PAW_PBE O 08Apr2002
   POMASS =   16.000; ZVAL   =    6.000    mass and valenz
   ENMAX  =  400.000; ENMIN  =  300.000 eV

 Optimization of the real space projectors (new method)

 maximal supplied QI-value         = 22.11
 optimisation between [QCUT,QGAM] = [ 11.94, 23.88] = [ 39.92,159.67] Ry
 Optimized for a Real-space Cutoff    1.18 Angstroem

   l    n(q)    QCUT    max X(q) W(low)/X(q) W(high)/X(q)  e(spline)
   0      8    11.939    53.033    0.11E-03    0.34E-03    0.60E-07
   0      8    11.939    34.740    0.11E-03    0.34E-03    0.59E-07
   1      8    11.939    30.949    0.22E-03    0.20E-03    0.17E-06
   1      8    11.939    19.518    0.20E-03    0.18E-03    0.16E-06
 Optimization of the real space projectors (new method)

[...]

   l    n(q)    QCUT    max X(q) W(low)/X(q) W(high)/X(q)  e(spline)
   0     10    11.813    79.467    0.48E-04    0.30E-04    0.67E-06
   0     10    11.813    66.151    0.47E-04    0.30E-04    0.67E-06
   1     10    11.813    20.169    0.11E-03    0.17E-03    0.11E-05
   1     10    11.813    14.454    0.11E-03    0.17E-03    0.11E-05
 Optimization of the real space projectors (new method)

 maximal supplied QI-value         = 24.76
 optimisation between [QCUT,QGAM] = [ 11.88, 24.01] = [ 39.54,161.47] Ry
 Optimized for a Real-space Cutoff    1.18 Angstroem

   l    n(q)    QCUT    max X(q) W(low)/X(q) W(high)/X(q)  e(spline)
   0      8    11.883    20.381    0.86E-04    0.11E-03    0.31E-06
   0      8    11.883    15.268    0.94E-04    0.12E-03    0.33E-06
   1      8    11.883     5.964    0.19E-03    0.18E-04    0.33E-06
   1      8    11.883     5.382    0.17E-03    0.20E-04    0.29E-06
  PAW_PBE B 06Sep2000                   :
  PAW_PBE C 08Apr2002                   :
  PAW_PBE F 08Apr2002                   :
  PAW_PBE H 15Jun2001                   :
  PAW_PBE N 08Apr2002                   :
  PAW_PBE O 08Apr2002                   :

 POSCAR: B C F H N O
  positions in direct lattice
  velocities in cartesian coordinates

 METAGGA = SCAN     LMAXTAU =  6    LMIXTAU =  F

 ion  position               nearest neighbor table
   1  0.308  0.486  0.389-  53 1.38  35 1.41  45 1.45
   2  0.311  0.496  0.444-  45 1.45  46 1.45  36 1.45
   3  0.310  0.499  0.500-  47 1.45  46 1.45  37 1.45
   4  0.311  0.500  0.555-  48 1.45  38 1.45  47 1.45
   5  0.308  0.496  0.611-  55 1.38  39 1.41  48 1.45
   6  0.808  0.512  0.389-  54 1.38  40 1.41  49 1.45
   7  0.811  0.502  0.444-  49 1.45  50 1.45  41 1.45
   8  0.810  0.500  0.500-  51 1.45  50 1.45  42 1.45
   9  0.811  0.502  0.555-  52 1.45  43 1.45  51 1.45
  10  0.809  0.511  0.611-  56 1.37  44 1.42  52 1.46
  11  0.060  0.498  0.417-  35 1.42  36 1.45  49 1.45
  12  0.061  0.499  0.472-  36 1.44  37 1.44  50 1.45
  13  0.060  0.500  0.527-  38 1.44  37 1.44  51 1.45
  14  0.060  0.500  0.583-  39 1.42  52 1.45  38 1.45
  15  0.560  0.500  0.417-  40 1.42  41 1.45  45 1.45
  16  0.561  0.499  0.472-  41 1.44  42 1.44  46 1.45
  17  0.560  0.500  0.527-  43 1.44  42 1.44  47 1.45
  18  0.561  0.505  0.583-  44 1.42  48 1.45  43 1.45
  19  0.643  0.569  0.755-  22 1.34  24 1.35  23 1.35  20 1.53
  20  0.561  0.566  0.725-  26 1.37  25 1.37  19 1.53  21 1.55
  21  0.655  0.518  0.700-  57 1.24  58 1.25  20 1.55
  22  0.659  0.487  0.767-  19 1.34
  23  0.563  0.619  0.775-  19 1.35
  24  0.784  0.605  0.752-  19 1.35
  25  0.423  0.524  0.730-  20 1.37
  26  0.529  0.652  0.718-  20 1.37
  27  0.086  0.492  0.371-  35 1.01
  28  0.084  0.498  0.628-  39 1.01
  29  0.585  0.507  0.371-  40 1.01
  30  0.587  0.513  0.629-  44 1.01
  31  0.314  0.472  0.345-  53 0.96
  32  0.814  0.528  0.345-  54 0.96
  33  0.313  0.489  0.655-  55 0.96
  34  0.815  0.531  0.655-  56 1.00
  35  0.146  0.491  0.390-  27 1.01   1 1.41  11 1.42
  36  0.144  0.497  0.444-  12 1.44  11 1.45   2 1.45
  37  0.144  0.499  0.500-  12 1.44  13 1.44   3 1.45
  38  0.144  0.499  0.555-  13 1.44  14 1.45   4 1.45
  39  0.146  0.496  0.609-  28 1.01   5 1.41  14 1.42
  40  0.646  0.508  0.390-  29 1.01   6 1.41  15 1.42
  41  0.644  0.500  0.444-  16 1.44  15 1.45   7 1.45
  42  0.644  0.499  0.500-  16 1.44  17 1.44   8 1.45
  43  0.644  0.503  0.555-  17 1.44  18 1.45   9 1.45
  44  0.647  0.512  0.609-  30 1.01  18 1.42  10 1.42
  45  0.394  0.493  0.416-  15 1.45   2 1.45   1 1.45
  46  0.394  0.498  0.472-   3 1.45   2 1.45  16 1.45
  47  0.394  0.500  0.527-   3 1.45  17 1.45   4 1.45
  48  0.394  0.500  0.583-   4 1.45  18 1.45   5 1.45
  49  0.894  0.505  0.416-  11 1.45   7 1.45   6 1.45
  50  0.894  0.500  0.472-   8 1.45   7 1.45  12 1.45
  51  0.894  0.500  0.527-   8 1.45  13 1.45   9 1.45
  52  0.894  0.504  0.583-   9 1.45  14 1.45  10 1.46
  53  0.382  0.476  0.362-  31 0.96   1 1.38
  54  0.882  0.524  0.362-  32 0.96   6 1.38
  55  0.382  0.492  0.638-  33 0.96   5 1.38
  56  0.883  0.517  0.638-  34 1.00  10 1.37
  57  0.655  0.436  0.702-  21 1.24
  58  0.719  0.570  0.682-  21 1.25

  LATTYP: Found a simple orthorhombic cell.
 ALAT       =     8.7025000000
 B/A-ratio  =     1.7236426314
 C/A-ratio  =     5.1709278943

  Lattice vectors:

 A1 = (   0.0000000000,  -8.7025000000,   0.0000000000)
 A2 = (  15.0000000000,   0.0000000000,   0.0000000000)
 A3 = (   0.0000000000,   0.0000000000,  45.0000000000)

Analysis of symmetry for initial positions (statically):
 Subroutine PRICEL returns:
 Original cell was already a primitive cell.

 Routine SETGRP: Setting up the symmetry group for a
 simple orthorhombic supercell.

 Subroutine GETGRP returns: Found  1 space group operations
 (whereof  1 operations were pure point group operations)
 out of a pool of  8 trial point group operations.

The static configuration has the point symmetry C_1 .

Analysis of symmetry for dynamics (positions and initial velocities):
 Subroutine PRICEL returns:
 Original cell was already a primitive cell.

[...]

The dynamic configuration has the point symmetry C_1 .

Analysis of constrained symmetry for selective dynamics:
 Subroutine PRICEL returns:
 Original cell was already a primitive cell.

[...]

The constrained configuration has the point symmetry C_1 .

Analysis of structural, dynamic, and magnetic symmetry:
 Subroutine PRICEL returns:
 Original cell was already a primitive cell.

 Routine SETGRP: Setting up the symmetry group for a
 simple orthorhombic supercell.

 Subroutine GETGRP returns: Found  1 space group operations
 (whereof  1 operations were pure point group operations)
 out of a pool of  8 trial point group operations.

The magnetic configuration has the point symmetry C_1 .

 Subroutine INISYM returns: Found  1 space group operations
 (whereof  1 operations are pure point group operations),
 and found     1 'primitive' translations

 KPOINTS: K-Point Grid

Automatic generation of k-mesh.
Space group operators:
 irot       det(A)        alpha          n_x          n_y          n_z        tau_x        tau_y        tau_z
    1     1.000000     0.000001     1.000000     0.000000     0.000000     0.000000     0.000000     0.000000

 Subroutine IBZKPT returns following result:

 Found      8 irreducible k-points:

 Following reciprocal coordinates:
            Coordinates               Weight
  0.125000  0.125000  0.000000      2.000000
  0.375000  0.125000  0.000000      2.000000
 -0.375000  0.125000  0.000000      2.000000
 -0.125000  0.125000  0.000000      2.000000
  0.125000  0.375000  0.000000      2.000000
  0.375000  0.375000  0.000000      2.000000
 -0.375000  0.375000  0.000000      2.000000
 -0.125000  0.375000  0.000000      2.000000

 Following cartesian coordinates:
            Coordinates               Weight
  0.008333 -0.014364  0.000000      2.000000
  0.008333 -0.043091  0.000000      2.000000
  0.008333  0.043091  0.000000      2.000000
  0.008333  0.014364  0.000000      2.000000
  0.025000 -0.014364  0.000000      2.000000
  0.025000 -0.043091  0.000000      2.000000
  0.025000  0.043091  0.000000      2.000000
  0.025000  0.014364  0.000000      2.000000

 SYSTEM =  SiC
 POSCAR =  B C F H N O

 Startparameter for this run:
   NWRITE =      2    write-flag & timer
   PREC   = accura    normal or accurate (medium, high low for compatibility)
   ISTART =      1    job   : 0-new  1-cont  2-samecut
   ICHARG =      0    charge: 1-file 2-atom 10-const
   ISPIN  =      2    spin polarized calculation?
   LNONCOLLINEAR =      F non collinear calculations
   LSORBIT =      F    spin-orbit coupling
   INIWAV =      1    electr: 0-lowe 1-rand  2-diag
   LASPH  =      T    aspherical Exc in radial PAW
   METAGGA=      F    non-selfconsistent MetaGGA calc.

 Electronic Relaxation 1
   ENCUT  =  550.0 eV  40.42 Ry    6.36 a.u.  16.64 28.68 86.05*2*pi/ulx,y,z
   ENINI  =  550.0     initial cutoff
   ENAUG  =  644.9 eV  augmentation charge cutoff
   NELM   =    100;   NELMIN=  2; NELMDL=  0     # of ELM steps
   EDIFF  = 0.1E-04   stopping-criterion for ELM
   LREAL  =      T    real-space projection
   NLSPLINE    = F    spline interpolate recip. space projectors
   LCOMPAT=      F    compatible to vasp.4.4
   GGA_COMPAT  = T    GGA compatible to vasp.4.4-vasp.4.6
   LMAXPAW     = -100 max onsite density
   LMAXMIX     =    2 max onsite mixed and CHGCAR
   VOSKOWN=      0    Vosko Wilk Nusair interpolation
   ROPT   =   -0.00025  -0.00025  -0.00025  -0.00025
   ROPT   =   -0.00025  -0.00025
 Ionic relaxation
   EDIFFG = -.2E-01   stopping-criterion for IOM
   NSW    =    500    number of steps for IOM
   NBLOCK =      1;   KBLOCK =    500    inner block; outer block
   IBRION =      2    ionic relax: 0-MD 1-quasi-New 2-CG
   NFREE  =      1    steps in history (QN), initial steepest desc. (CG)
   ISIF   =      2    stress and relaxation
   IWAVPR =     11    prediction:  0-non 1-charg 2-wave 3-comb
   ISYM   =      2    0-nonsym 1-usesym 2-fastsym
   LCORR  =      T    Harris-Foulkes like correction to forces

   POTIM  = 0.5000    time-step for ionic-motion
   TEIN   =    0.0    initial temperature
   TEBEG  =    0.0;   TEEND  =   0.0 temperature during run
   SMASS  =  -3.00    Nose mass-parameter (am)
[...]
  volume of cell :     5874.19
      direct lattice vectors                 reciprocal lattice vectors
     0.000000000 -8.702500000  0.000000000     0.000000000 -0.114909509  0.000000000
    15.000000000  0.000000000  0.000000000     0.066666667  0.000000000  0.000000000
     0.000000000  0.000000000 45.000000000     0.000000000  0.000000000  0.022222222

  length of vectors
     8.702500000 15.000000000 45.000000000     0.114909509  0.066666667  0.022222222

 FORCES acting on ions
    electron-ion (+dipol)            ewald-force                    non-local-force                 convergence-correction
   0.166E+02 -.617E+01 0.277E+03   -.164E+02 0.730E+01 -.273E+03   -.233E+00 -.119E+01 -.128E+01   -.539E-03 -.455E-05 -.237E-03
   0.599E+01 0.152E+00 0.166E+03   -.598E+01 -.168E+00 -.165E+03   -.238E-01 -.597E-02 0.280E-01   -.144E-03 0.151E-03 0.591E-03
   0.199E+01 -.661E+00 0.699E+02   -.197E+01 0.587E+00 -.685E+02   -.316E-02 0.405E-01 -.184E-01   -.762E-03 -.840E-03 0.801E-03
   0.545E+01 -.961E+00 -.232E+02   -.542E+01 0.923E+00 0.246E+02   -.912E-02 -.184E-01 -.583E-01   -.869E-03 0.237E-03 -.898E-04
   0.189E+02 -.150E+02 -.123E+03   -.188E+02 0.160E+02 0.122E+03   -.110E+00 -.125E+01 0.129E+01   -.980E-03 -.594E-04 0.866E-03
   -.161E+02 -.615E+01 0.277E+03   0.158E+02 0.728E+01 -.273E+03   0.243E+00 -.119E+01 -.128E+01   0.889E-03 0.495E-03 -.467E-03
   -.228E+01 0.984E-01 0.166E+03   0.228E+01 -.112E+00 -.165E+03   0.371E-02 -.394E-02 0.254E-01   0.396E-03 0.549E-03 0.714E-03
   0.274E+01 -.493E+00 0.704E+02   -.272E+01 0.427E+00 -.690E+02   -.131E-01 0.510E-01 -.305E-01   0.324E-04 -.298E-03 0.846E-03
   0.227E+01 0.141E+01 -.201E+02   -.223E+01 -.141E+01 0.218E+02   -.170E-01 0.187E-01 -.137E+00   0.664E-03 0.440E-03 -.310E-03
   -.166E+01 0.530E+01 -.101E+03   0.168E+01 -.399E+01 0.102E+03   0.301E-01 -.105E+01 0.940E+00   -.155E-02 0.158E-03 0.562E-03
   0.104E+01 -.521E+01 0.225E+03   -.935E+00 0.504E+01 -.224E+03   -.379E-01 0.158E+00 0.267E+00   0.181E-03 -.695E-03 -.144E-03
   0.766E+00 -.189E+01 0.116E+03   -.732E+00 0.176E+01 -.115E+03   -.192E-01 0.100E+00 0.353E-01   -.143E-03 0.379E-03 0.798E-03
   0.275E+01 -.165E+01 0.248E+02   -.271E+01 0.155E+01 -.234E+02   -.201E-01 0.997E-01 -.799E-01   -.135E-02 -.855E-04 0.703E-03
   0.862E+01 -.222E+01 -.775E+02   -.850E+01 0.229E+01 0.791E+02   -.637E-01 0.971E-01 -.326E+00   -.312E-03 -.117E-02 0.329E-04
   0.122E+01 -.524E+01 0.225E+03   -.132E+01 0.507E+01 -.224E+03   0.270E-01 0.159E+00 0.268E+00   -.365E-03 -.430E-04 -.124E-03
   0.357E+01 -.203E+01 0.116E+03   -.358E+01 0.189E+01 -.115E+03   0.410E-02 0.101E+00 0.327E-01   -.112E-02 0.744E-03 0.105E-02
   0.297E+01 -.236E+01 0.260E+02   -.297E+01 0.219E+01 -.244E+02   0.647E-02 0.106E+00 -.919E-01   0.151E-03 0.487E-03 0.724E-03
   0.413E+00 -.838E+01 -.688E+02   -.433E+00 0.795E+01 0.707E+02   0.350E-01 0.186E+00 -.362E+00   -.661E-03 0.755E-04 0.327E-03
   -.199E+02 0.181E+02 -.347E+03   0.191E+02 -.128E+02 0.335E+03   0.288E+00 -.520E+01 0.933E+01   0.114E-02 0.140E-02 -.588E-03
   -.465E+01 -.454E+01 -.227E+03   -.153E+01 -.643E+01 0.222E+03   0.557E+01 0.103E+02 0.296E+01   -.170E-03 0.210E-03 -.443E-03
   0.423E+02 0.165E+02 -.211E+03   -.427E+02 -.161E+02 0.211E+03   -.457E+00 -.116E+01 -.923E+00   0.188E-02 -.258E-02 0.184E-03
   0.510E+03 0.101E+03 -.857E+03   -.565E+03 -.107E+03 0.875E+03   0.529E+02 0.614E+01 -.224E+02   0.165E-02 0.245E-01 -.295E-02
   -.350E+03 -.225E+03 -.975E+03   0.381E+03 0.254E+03 0.101E+04   -.315E+02 -.291E+02 -.375E+02   0.240E-01 0.170E-01 -.783E-02
   -.287E+03 0.516E+03 -.588E+03   0.309E+03 -.569E+03 0.579E+03   -.232E+02 0.520E+02 0.509E+01   0.113E-01 -.227E-02 0.290E-01
   0.228E+03 -.513E+03 -.525E+03   -.254E+03 0.559E+03 0.530E+03   0.247E+02 -.465E+02 -.681E+01   0.422E-02 0.514E-02 -.413E-02
   -.632E+03 -.182E+03 -.284E+03   0.682E+03 0.192E+03 0.267E+03   -.502E+02 -.110E+02 0.143E+02   -.670E-02 -.131E-01 -.112E-01
   0.780E+01 -.201E+02 0.165E+03   -.751E+01 0.244E+02 -.170E+03   -.152E+00 -.409E+01 0.650E+01   -.292E-03 -.661E-04 -.518E-03
   0.876E+01 -.156E+02 -.113E+03   -.845E+01 0.202E+02 0.119E+03   -.224E+00 -.419E+01 -.636E+01   -.194E-03 -.316E-03 0.458E-03
   -.854E+01 -.200E+02 0.164E+03   0.830E+01 0.244E+02 -.170E+03   0.968E-01 -.409E+01 0.650E+01   0.782E-04 -.533E-04 -.348E-03
   -.448E+01 -.244E+02 -.954E+02   0.453E+01 0.282E+02 0.102E+03   -.659E-01 -.403E+01 -.651E+01   -.777E-03 0.202E-03 0.436E-03
   0.139E+02 -.467E+02 0.189E+03   -.144E+02 0.511E+02 -.194E+03   0.495E+00 -.523E+01 0.717E+01   -.145E-03 -.129E-03 0.257E-04
   -.155E+02 -.468E+02 0.188E+03   0.160E+02 0.511E+02 -.194E+03   -.601E+00 -.524E+01 0.716E+01   0.267E-03 -.357E-03 0.144E-03
   0.174E+02 -.609E+02 -.134E+03   -.177E+02 0.651E+02 0.140E+03   0.357E+00 -.529E+01 -.713E+01   -.487E-03 -.590E-03 0.244E-03
   -.149E+02 -.875E+01 -.946E+02   0.164E+02 0.129E+02 0.101E+03   -.154E+01 -.408E+01 -.578E+01   -.123E-02 -.199E-03 0.111E-03
   0.291E+02 -.242E+02 0.521E+03   -.294E+02 0.230E+02 -.515E+03   0.542E+00 0.156E+01 -.297E+01   -.387E-02 -.247E-02 -.720E-03
   0.562E+01 0.455E+00 0.276E+03   -.574E+01 -.638E+00 -.274E+03   0.157E+00 0.199E+00 0.930E-01   0.698E-03 -.363E-02 0.295E-03
   0.293E+01 0.122E+01 0.116E+03   -.292E+01 -.140E+01 -.114E+03   0.266E-01 0.194E+00 -.400E-01   -.599E-02 0.205E-02 0.368E-02
   0.979E+01 0.910E+00 -.389E+02   -.988E+01 -.102E+01 0.413E+02   0.139E+00 0.207E+00 -.187E+00   -.604E-02 -.787E-03 0.148E-02
   0.407E+02 -.211E+02 -.273E+03   -.415E+02 0.204E+02 0.271E+03   0.976E+00 0.143E+01 0.250E+01   0.420E-03 -.567E-02 -.133E-02
   -.295E+02 -.243E+02 0.521E+03   0.298E+02 0.230E+02 -.514E+03   -.561E+00 0.156E+01 -.297E+01   0.165E-02 -.567E-03 -.183E-02
   0.133E+01 0.360E+00 0.276E+03   -.134E+01 -.549E+00 -.274E+03   -.309E-01 0.204E+00 0.876E-01   -.464E-02 -.215E-02 0.231E-03
   0.534E+01 0.906E+00 0.117E+03   -.539E+01 -.111E+01 -.115E+03   0.494E-01 0.189E+00 -.588E-01   -.278E-02 0.421E-02 0.365E-02
   0.212E+01 -.124E+00 -.326E+02   -.201E+01 -.152E+00 0.354E+02   -.819E-01 0.202E+00 -.236E+00   0.302E-02 0.216E-02 -.269E-03
   -.231E+02 -.256E+02 -.220E+03   0.243E+02 0.236E+02 0.220E+03   -.110E+01 0.182E+01 0.285E+01   -.509E-02 -.142E-02 0.674E-03
   0.202E+02 0.663E+01 0.372E+03   -.208E+02 -.706E+01 -.370E+03   0.525E+00 0.342E+00 0.404E-01   0.730E-03 0.173E-02 -.210E-03
   0.486E+01 0.322E+00 0.194E+03   -.483E+01 -.372E+00 -.192E+03   -.530E-01 0.406E-01 0.902E-01   -.123E-02 0.537E-03 0.833E-03
   0.355E+01 -.664E+00 0.405E+02   -.344E+01 0.578E+00 -.380E+02   -.104E+00 0.448E-01 -.144E+00   0.126E-02 -.994E-03 0.231E-02
   0.148E+02 -.177E+01 -.122E+03   -.150E+02 0.104E+01 0.125E+03   0.152E+00 0.337E+00 -.742E-01   -.307E-02 -.117E-03 0.435E-02
   -.150E+02 0.654E+01 0.373E+03   0.155E+02 -.696E+01 -.370E+03   -.382E+00 0.336E+00 0.483E-01   0.504E-02 0.291E-02 -.301E-03
   0.259E+01 0.529E+00 0.194E+03   -.271E+01 -.563E+00 -.192E+03   0.135E+00 0.466E-01 0.762E-01   0.372E-02 0.166E-02 0.411E-03
   0.657E+01 0.138E+01 0.406E+02   -.674E+01 -.134E+01 -.380E+02   0.190E+00 0.244E-01 -.222E+00   0.151E-03 0.103E-02 0.139E-02
   0.653E+01 0.134E+02 -.121E+03   -.657E+01 -.131E+02 0.124E+03   0.126E+00 -.615E-02 -.476E+00   0.309E-02 0.483E-03 0.222E-02
   0.748E+02 0.629E+02 0.763E+03   -.780E+02 -.104E+03 -.757E+03   0.257E+01 0.389E+02 0.144E+00   -.683E-03 -.170E-02 0.146E-03
   -.776E+02 0.630E+02 0.762E+03   0.807E+02 -.104E+03 -.757E+03   -.248E+01 0.390E+02 0.144E+00   0.433E-02 0.155E-02 -.880E-02
   0.779E+02 -.125E+01 -.420E+03   -.786E+02 -.413E+02 0.420E+03   0.499E+00 0.390E+02 -.581E+00   -.783E-02 0.435E-04 0.936E-02
   -.288E+01 0.144E+03 -.391E+03   -.698E+00 -.177E+03 0.400E+03   0.378E+01 0.342E+02 -.550E+01   -.158E-01 -.188E-02 -.625E-02
   0.550E+03 0.520E+02 -.330E+03   -.605E+03 -.527E+02 0.330E+03   0.517E+02 -.440E-01 -.247E+01   -.194E-01 -.121E-01 -.898E-02
   -.265E+03 0.185E+03 -.139E+03   0.299E+03 -.206E+03 0.110E+03   -.332E+02 0.196E+02 0.281E+02   -.743E-03 0.349E-02 0.232E-01
   0.241E+00 -.115E+03 0.170E+02   -.171E-12 -.284E-13 -.284E-12   -.205E+00 0.115E+03 -.170E+02   -.250E-01 0.178E-01 0.348E-01

 POSITION                                       TOTAL-FORCE (eV/Angst)
      7.29419     -2.68299     17.49345         0.003542     -0.003824      0.001285
      7.43668     -2.70276     19.98201         0.000442     -0.001587      0.002820
      7.48545     -2.70244     22.48613         0.001917     -0.003163     -0.003775
      7.49289     -2.70301     24.99088         0.000223      0.000136      0.005003
      7.43515     -2.68188     27.48483        -0.000621     -0.000331     -0.005529
      7.68325     -7.03415     17.49486        -0.003574     -0.000634      0.000803
      7.52551     -7.05425     19.98215         0.001632      0.002301      0.000623
      7.49727     -7.05385     22.48585        -0.000681      0.004785     -0.001044
      7.53676     -7.05384     24.99011        -0.001889      0.003294      0.005034
      7.67061     -7.04278     27.48887         0.001889      0.001975     -0.004230
      7.47418     -0.52526     18.74641        -0.001884     -0.001143      0.000010
      7.48710     -0.52715     21.23863        -0.001966      0.004517     -0.004715
      7.49703     -0.52688     23.73214         0.000613      0.004544     -0.002596
      7.50049     -0.52405     26.22225        -0.002430     -0.008062      0.001315
      7.49217     -4.87655     18.74691         0.003798     -0.003480      0.003116
      7.48128     -4.87835     21.23954         0.005704      0.004026     -0.003690
      7.50673     -4.87836     23.73443        -0.000468      0.004477     -0.003402
      7.57125     -4.87776     26.22871         0.000419     -0.006393     -0.002275
      8.53464     -5.59752     33.98486        -0.006808     -0.000416     -0.001896
      8.48995     -4.88312     32.62653        -0.000039     -0.002373     -0.000870
      7.77415     -5.69597     31.51013         0.007066      0.010295      0.000420
      7.30563     -5.73885     34.50468        -0.002062     -0.008881     -0.005179
      9.27896     -4.90288     34.86633        -0.006260     -0.013235     -0.000712
      9.08064     -6.82084     33.85224         0.001105      0.004112     -0.007469
      7.86302     -3.68351     32.83513         0.002027     -0.004494      0.000042
      9.78681     -4.59962     32.30233        -0.003525      0.006345      0.007141
      7.37481     -0.74441     16.68261         0.000604      0.004466     -0.003649
      7.46314     -0.72785     28.28052         0.000631      0.004642      0.002819
      7.61150     -5.09488     16.68413         0.000171      0.000595     -0.001980
      7.69962     -5.10321     28.29278        -0.000383      0.003792      0.001539
      7.08703     -2.73427     15.52431         0.002314      0.000420     -0.000408
      7.91529     -7.08467     15.52848        -0.004547     -0.003160      0.005291
      7.33605     -2.72378     29.46199         0.000433     -0.002333     -0.000150
      7.96283     -7.09508     29.47568         0.004919      0.001281     -0.002232
      7.36151     -1.27196     17.54450         0.000455     -0.000025      0.001023
      7.46098     -1.25406     19.99589         0.000564     -0.008909      0.006054
      7.48920     -1.25373     22.48505         0.004436     -0.004315     -0.003616
      7.49203     -1.25460     24.97313         0.005542     -0.003259      0.000504
      7.43800     -1.27171     27.42636         0.001986     -0.003974     -0.000135
      7.61705     -5.62307     17.54592        -0.002216      0.005167      0.001080
      7.49978     -5.60552     19.99654        -0.004078     -0.003880      0.006748
      7.49279     -5.60491     22.48634        -0.001458      0.001647     -0.003582
      7.54018     -5.60475     24.97595        -0.002515      0.002084     -0.002485
      7.68671     -5.62644     27.42740        -0.000100      0.001720     -0.000539
      7.38953     -3.43202     18.73151        -0.003745     -0.002055      0.003870
      7.46896     -3.42896     21.23546        -0.001623     -0.007323      0.002328
      7.49826     -3.42917     23.73618        -0.000120     -0.000815     -0.000985
      7.49491     -3.43095     26.24328         0.002844     -0.006219      0.007512
      7.57385     -7.78336     18.73167        -0.001837      0.005210      0.001738
      7.49871     -7.78054     21.23523        -0.001293     -0.001609      0.003968
      7.50369     -7.78038     23.73507         0.001695      0.005042     -0.001951
      7.56262     -7.78185     26.23831         0.000927     -0.001962      0.006601
      7.13697     -3.32679     16.28415        -0.001340     -0.000428     -0.004547
      7.85410     -7.67750     16.28730        -0.000740     -0.000294     -0.009359
      7.37324     -3.32218     28.70605         0.003295      0.004501     -0.003564
      7.75433     -7.68431     28.69561         0.005614      0.006040      0.001317
      6.53800     -5.69825     31.57234        -0.002405      0.000748     -0.000719
      8.55341     -6.26072     30.70486        -0.006199      0.010414      0.007280
    total drift:                                0.010449      0.415164     -0.022629

  FREE ENERGIE OF THE ION-ELECTRON SYSTEM (eV)
  free  energy   TOTEN  =      -491.83167239 eV

  energy  without entropy=     -491.83167239  energy(sigma->0) =     -491.83167239

 d Force = 0.6898594E-04[ 0.304E-04, 0.108E-03]  d Energy = 0.5340874E-04 0.156E-04
 d Force =-0.6448843E+00[-0.645E+00,-0.645E+00]  d Ewald  =-0.6448843E+00 0.103E-07

 Conjugate gradient step on ions:
 trial-energy change:   -0.000053  1 .order   -0.000069   -0.000108   -0.000030
  (g-gl).g = 0.223E-03      g.g   = 0.234E-03  gl.gl    = 0.254E-03
 g(Force)  = 0.234E-03   g(Stress)= 0.000E+00 ortho     = 0.208E-04
 gamma     =   0.87871
 trial     =   0.42572
 opt step  =   0.59295  (harmonic =   0.59295) maximal distance =0.00066145
 next E    =  -491.831694   (d E  =  -0.00007)

 reached required accuracy - stopping structural energy minimisation
 writing wavefunctions

 total charge

[...]

 magnetization (x)

# of ion       s       p       d       tot
    1        0.000   0.000   0.000   0.000
    2        0.000   0.000   0.000   0.000
    3       -0.000   0.000   0.000  -0.000
    4       -0.000  -0.000   0.000  -0.000
    5        0.000   0.000   0.000   0.000
    6       -0.000  -0.000   0.000  -0.000
    7        0.000   0.000   0.000   0.000
    8       -0.000  -0.000   0.000  -0.000
    9        0.000  -0.000   0.000  -0.000
   10        0.000  -0.000   0.000  -0.000
   11       -0.000  -0.000   0.000  -0.000
   12        0.000   0.000   0.000   0.000
   13       -0.000   0.000   0.000   0.000
   14        0.000   0.000   0.000   0.000
   15       -0.000   0.000   0.000   0.000
   16       -0.000  -0.000   0.000  -0.000
   17       -0.000  -0.000   0.000  -0.000
   18       -0.000  -0.000   0.000  -0.000
   19        0.000  -0.000   0.000  -0.000
   20       -0.000   0.000   0.000   0.000
   21        0.000   0.000   0.000   0.000
   22       -0.000   0.000   0.000   0.000
   23        0.000   0.000   0.000   0.000
   24        0.000  -0.000   0.000  -0.000
   25        0.000   0.000   0.000   0.000
   26        0.000   0.000   0.000   0.000
   27       -0.000  -0.000   0.000  -0.000
   28        0.000  -0.000   0.000   0.000
   29       -0.000  -0.000   0.000  -0.000
   30       -0.000  -0.000   0.000  -0.000
   31        0.000  -0.000   0.000   0.000
   32        0.000   0.000   0.000   0.000
   33        0.000  -0.000   0.000   0.000
   34       -0.000   0.000   0.000  -0.000
   35        0.000  -0.000   0.000  -0.000
   36       -0.000  -0.000   0.000  -0.000
   37       -0.000  -0.000   0.000  -0.000
   38       -0.000  -0.000   0.000  -0.000
   39        0.000  -0.000   0.000  -0.000
   40       -0.000  -0.000   0.000  -0.000
   41       -0.000  -0.000   0.000  -0.000
   42       -0.000   0.000   0.000   0.000
   43        0.000   0.000   0.000   0.000
   44       -0.000  -0.000   0.000  -0.000
   45       -0.000  -0.000   0.000  -0.000
   46       -0.000   0.000   0.000   0.000
   47        0.000   0.000   0.000   0.000
   48       -0.000  -0.000   0.000  -0.000
   49        0.000   0.000   0.000   0.000
   50        0.000  -0.000   0.000  -0.000
   51        0.000   0.000   0.000   0.000
   52       -0.000   0.000   0.000   0.000
   53       -0.000   0.000   0.000   0.000
   54       -0.000  -0.000   0.000  -0.000
   55        0.000   0.000   0.000   0.000
   56        0.000   0.000   0.000   0.000
   57       -0.000  -0.000   0.000  -0.000
   58        0.000  -0.000   0.000  -0.000
tot          0.000  -0.000   0.000  -0.000