 vasp.5.4.4.18Apr17-6-g9f103f2a35 (build May 01 2020 14:57:12) complex

 executed on             LinuxIFC date 2021.12.06  15:49:52

 INCAR:
 POTCAR:    PAW_PBE B 06Sep2000
 POTCAR:    PAW_PBE N 08Apr2002
 POTCAR:    PAW_PBE C 08Apr2002
 POTCAR:    PAW_PBE F 08Apr2002
 POTCAR:    PAW_PBE O 08Apr2002

 POTCAR:    PAW_PBE B 06Sep2000
   VRHFIN =B: s2p1

   TITEL  = PAW_PBE B 06Sep2000
   POMASS =   10.811; ZVAL   =    3.000    mass and valenz
   ENMAX  =  318.614; ENMIN  =  238.960 eV

 POTCAR:    PAW_PBE N 08Apr2002
   VRHFIN =N: s2p3

   TITEL  = PAW_PBE N 08Apr2002
   POMASS =   14.001; ZVAL   =    5.000    mass and valenz
   ENMAX  =  400.000; ENMIN  =  300.000 eV

 POTCAR:    PAW_PBE C 08Apr2002
   VRHFIN =C: s2p2

[...]

 POTCAR:    PAW_PBE F 08Apr2002
   VRHFIN =F: s2p5

[...]

 POTCAR:    PAW_PBE O 08Apr2002
   VRHFIN =O: s2p4

   TITEL  = PAW_PBE O 08Apr2002
   POMASS =   16.000; ZVAL   =    6.000    mass and valenz
   ENMAX  =  400.000; ENMIN  =  300.000 eV

 Optimization of the real space projectors (new method)

 maximal supplied QI-value         = 22.11
 optimisation between [QCUT,QGAM] = [ 11.94, 23.88] = [ 39.92,159.67] Ry
 Optimized for a Real-space Cutoff    1.18 Angstroem

   l    n(q)    QCUT    max X(q) W(low)/X(q) W(high)/X(q)  e(spline)
   0      8    11.939    53.033    0.11E-03    0.34E-03    0.60E-07
   0      8    11.939    34.740    0.11E-03    0.34E-03    0.59E-07
   1      8    11.939    30.949    0.22E-03    0.20E-03    0.17E-06
   1      8    11.939    19.518    0.20E-03    0.18E-03    0.16E-06
 Optimization of the real space projectors (new method)

[...]

   l    n(q)    QCUT    max X(q) W(low)/X(q) W(high)/X(q)  e(spline)
   0      8    11.883    14.049    0.56E-04    0.86E-04    0.22E-06
   0      8    11.883     8.945    0.81E-04    0.11E-03    0.30E-06
   1      8    11.883     7.086    0.16E-03    0.15E-04    0.31E-06
   1      8    11.883     6.747    0.15E-03    0.14E-04    0.28E-06
 Optimization of the real space projectors (new method)

 maximal supplied QI-value         = 24.76
 optimisation between [QCUT,QGAM] = [ 11.88, 24.01] = [ 39.54,161.47] Ry
 Optimized for a Real-space Cutoff    1.18 Angstroem

   l    n(q)    QCUT    max X(q) W(low)/X(q) W(high)/X(q)  e(spline)
   0      8    11.883    20.381    0.86E-04    0.11E-03    0.31E-06
   0      8    11.883    15.268    0.94E-04    0.12E-03    0.33E-06
   1      8    11.883     5.964    0.19E-03    0.18E-04    0.33E-06
   1      8    11.883     5.382    0.17E-03    0.20E-04    0.29E-06
  PAW_PBE B 06Sep2000                   :
  PAW_PBE N 08Apr2002                   :
  PAW_PBE C 08Apr2002                   :
  PAW_PBE F 08Apr2002                   :
  PAW_PBE O 08Apr2002                   :

 POSCAR: B N C F O
  positions in direct lattice
  velocities in cartesian coordinates

 METAGGA = SCAN     LMAXTAU =  6    LMIXTAU =  F

 ion  position               nearest neighbor table
   1  0.111  0.055  0.500-  43 1.45  42 1.45  37 1.45
   2  0.111  0.222  0.500-  44 1.45  38 1.45  37 1.45
   3  0.111  0.389  0.500-  45 1.45  39 1.45  38 1.45
   4  0.111  0.555  0.500-  39 1.45  40 1.45  46 1.45
   5  0.111  0.722  0.501-  40 1.45  47 1.45  41 1.45
   6  0.111  0.889  0.500-  42 1.45  48 1.45  41 1.45
   7  0.278  0.056  0.500-  49 1.45  43 1.45  48 1.45
   8  0.278  0.222  0.499-  50 1.45  44 1.45  43 1.45
   9  0.278  0.389  0.498-  51 1.45  44 1.45  45 1.45
  10  0.278  0.555  0.499-  52 1.45  45 1.45  46 1.45
  11  0.278  0.722  0.500-  53 1.45  46 1.45  47 1.45
  12  0.278  0.889  0.501-  54 1.45  48 1.45  47 1.45
  13  0.444  0.056  0.500-  49 1.45  55 1.45  54 1.45
  14  0.444  0.222  0.499-  56 1.45  50 1.45  49 1.45
  15  0.444  0.389  0.498-  57 1.45  50 1.45  51 1.45
  16  0.444  0.555  0.497-  58 1.45  51 1.45  52 1.45
  17  0.444  0.722  0.499-  52 1.45  59 1.45  53 1.45
  18  0.444  0.889  0.500-  60 1.45  54 1.45  53 1.45
  19  0.611  0.056  0.500-  55 1.45  61 1.45  60 1.45
  20  0.611  0.222  0.499-  56 1.45  62 1.45  55 1.45
  21  0.611  0.389  0.499-  57 1.45  56 1.45  63 1.45
  22  0.611  0.555  0.498-  57 1.45  64 1.45  58 1.45
  23  0.611  0.722  0.499-  58 1.45  65 1.45  59 1.45
  24  0.611  0.889  0.500-  66 1.45  59 1.45  60 1.45
  25  0.778  0.055  0.500-  66 1.45  61 1.45  67 1.45
  26  0.778  0.222  0.500-  62 1.45  68 1.45  61 1.45
  27  0.778  0.389  0.499-  63 1.45  62 1.45  69 1.45
  28  0.778  0.555  0.499-  63 1.45  64 1.45  70 1.45
  29  0.778  0.722  0.499-  64 1.45  65 1.45  71 1.45
  30  0.778  0.889  0.500-  65 1.45  72 1.45  66 1.45
  31  0.944  0.055  0.500-  72 1.45  67 1.45  37 1.45
  32  0.944  0.222  0.500-  68 1.45  38 1.45  67 1.45
  33  0.944  0.389  0.500-  69 1.45  68 1.45  39 1.45
  34  0.944  0.555  0.500-  70 1.45  69 1.45  40 1.45
  35  0.944  0.722  0.500-  70 1.45  71 1.45  41 1.45
  36  0.944  0.889  0.500-  71 1.45  42 1.45  72 1.45
  37  0.055  0.111  0.500-  31 1.45   1 1.45   2 1.45
  38  0.055  0.278  0.500-  32 1.45   3 1.45   2 1.45
  39  0.055  0.444  0.500-   3 1.45   4 1.45  33 1.45
  40  0.055  0.611  0.501-   5 1.45   4 1.45  34 1.45
  41  0.055  0.778  0.501-   5 1.45   6 1.45  35 1.45
  42  0.055  0.944  0.500-   6 1.45  36 1.45   1 1.45
  43  0.222  0.111  0.500-   1 1.45   7 1.45   8 1.45
  44  0.222  0.278  0.499-   2 1.45   8 1.45   9 1.45
  45  0.222  0.444  0.499-   3 1.45  10 1.45   9 1.45
  46  0.222  0.611  0.500-  11 1.45   4 1.45  10 1.45
  47  0.222  0.778  0.501-   5 1.45  11 1.45  12 1.45
  48  0.222  0.944  0.501-   6 1.45  12 1.45   7 1.45
  49  0.389  0.111  0.500-   7 1.45  13 1.45  14 1.45
  50  0.389  0.278  0.498-   8 1.45  14 1.45  15 1.45
  51  0.389  0.444  0.497-   9 1.45  16 1.45  15 1.45
  52  0.389  0.611  0.499-  10 1.45  17 1.45  16 1.45
  53  0.389  0.778  0.500-  11 1.45  18 1.45  17 1.45
  54  0.389  0.944  0.501-  12 1.45  18 1.45  13 1.45
  55  0.555  0.111  0.500-  19 1.45  13 1.45  20 1.45
  56  0.555  0.278  0.499-  20 1.45  14 1.45  21 1.45
  57  0.555  0.444  0.498-  22 1.45  15 1.45  21 1.45
  58  0.555  0.611  0.497-  23 1.45  16 1.45  22 1.45
  59  0.555  0.778  0.499-  17 1.45  24 1.45  23 1.45
  60  0.555  0.944  0.501-  18 1.45  24 1.45  19 1.45
[...]
  71  0.889  0.778  0.500-  36 1.45  35 1.45  29 1.45
  72  0.889  0.944  0.500-  30 1.45  31 1.45  36 1.45
  73  0.454  0.590  0.622-  77 1.34  78 1.34  79 1.35  74 1.54
  74  0.500  0.530  0.603-  81 1.36  80 1.36  75 1.53  73 1.54
  75  0.534  0.469  0.628-  82 1.37  83 1.37  74 1.53  76 1.57
  76  0.572  0.406  0.604-  84 1.24  85 1.24  75 1.57
  77  0.368  0.527  0.641-  73 1.34
  78  0.522  0.659  0.647-  73 1.34
  79  0.431  0.639  0.596-  73 1.35
  80  0.427  0.464  0.578-  74 1.36
  81  0.582  0.600  0.582-  74 1.36
  82  0.609  0.537  0.651-  75 1.37
  83  0.453  0.406  0.651-  75 1.37
  84  0.504  0.316  0.597-  76 1.24
  85  0.664  0.454  0.596-  76 1.24

  LATTYP: Found a hexagonal cell.
 ALAT       =    15.0731507304
 C/A-ratio  =     2.3296167479

  Lattice vectors:

 A1 = (   7.5365500567, -13.0537460594,   0.0000000000)
 A2 = (   7.5365500567,  13.0537460594,   0.0000000000)
 A3 = (   0.0000000000,   0.0000000000,  35.1146643856)

Analysis of symmetry for initial positions (statically):
 Subroutine PRICEL returns:
 Original cell was already a primitive cell.

 Routine SETGRP: Setting up the symmetry group for a
 hexagonal supercell.

 Subroutine GETGRP returns: Found  1 space group operations
 (whereof  1 operations were pure point group operations)
 out of a pool of 24 trial point group operations.

The static configuration has the point symmetry C_1 .

Analysis of symmetry for dynamics (positions and initial velocities):
 Subroutine PRICEL returns:
 Original cell was already a primitive cell.

[...]

The dynamic configuration has the point symmetry C_1 .

Analysis of constrained symmetry for selective dynamics:
 Subroutine PRICEL returns:
 Original cell was already a primitive cell.

[...]

The constrained configuration has the point symmetry C_1 .

Analysis of structural, dynamic, and magnetic symmetry:
 Subroutine PRICEL returns:
 Original cell was already a primitive cell.

 Routine SETGRP: Setting up the symmetry group for a
 hexagonal supercell.

 Subroutine GETGRP returns: Found  1 space group operations
 (whereof  1 operations were pure point group operations)
 out of a pool of 24 trial point group operations.

The magnetic configuration has the point symmetry C_1 .

 Subroutine INISYM returns: Found  1 space group operations
 (whereof  1 operations are pure point group operations),
 and found     1 'primitive' translations

 KPOINTS: K-Point Grid

Automatic generation of k-mesh.
Space group operators:
 irot       det(A)        alpha          n_x          n_y          n_z        tau_x        tau_y        tau_z
    1     1.000000     0.000000     1.000000     0.000000     0.000000     0.000000     0.000000     0.000000

 Subroutine IBZKPT returns following result:

 Found      5 irreducible k-points:

 Following reciprocal coordinates:
            Coordinates               Weight
  0.000000  0.000000  0.000000      1.000000
  0.333333  0.000000  0.000000      2.000000
  0.000000  0.333333  0.000000      2.000000
  0.333333  0.333333  0.000000      2.000000
 -0.333333  0.333333  0.000000      2.000000

 Following cartesian coordinates:
            Coordinates               Weight
  0.000000  0.000000  0.000000      1.000000
  0.022114 -0.012768  0.000000      2.000000
  0.022114  0.012768  0.000000      2.000000
  0.044229  0.000000  0.000000      2.000000
  0.000000  0.025535  0.000000      2.000000

 SYSTEM =  SiC
 POSCAR =  B N C F O

 Startparameter for this run:
   NWRITE =      2    write-flag & timer
   PREC   = accura    normal or accurate (medium, high low for compatibility)
   ISTART =      1    job   : 0-new  1-cont  2-samecut
   ICHARG =      0    charge: 1-file 2-atom 10-const
   ISPIN  =      2    spin polarized calculation?
   LNONCOLLINEAR =      F non collinear calculations
   LSORBIT =      F    spin-orbit coupling
   INIWAV =      1    electr: 0-lowe 1-rand  2-diag
   LASPH  =      T    aspherical Exc in radial PAW
   METAGGA=      F    non-selfconsistent MetaGGA calc.

 Electronic Relaxation 1
   ENCUT  =  550.0 eV  40.42 Ry    6.36 a.u.  28.82 28.82 67.15*2*pi/ulx,y,z
   ENINI  =  550.0     initial cutoff
   ENAUG  =  644.9 eV  augmentation charge cutoff
   NELM   =    100;   NELMIN=  2; NELMDL=  0     # of ELM steps
   EDIFF  = 0.1E-04   stopping-criterion for ELM
   LREAL  =      T    real-space projection
   NLSPLINE    = F    spline interpolate recip. space projectors
   LCOMPAT=      F    compatible to vasp.4.4
   GGA_COMPAT  = T    GGA compatible to vasp.4.4-vasp.4.6
   LMAXPAW     = -100 max onsite density
   LMAXMIX     =    2 max onsite mixed and CHGCAR
   VOSKOWN=      0    Vosko Wilk Nusair interpolation
   ROPT   =   -0.00025  -0.00025  -0.00025  -0.00025
   ROPT   =   -0.00025
 Ionic relaxation
   EDIFFG = -.5E-01   stopping-criterion for IOM
   NSW    =    500    number of steps for IOM
   NBLOCK =      1;   KBLOCK =    500    inner block; outer block
   IBRION =      2    ionic relax: 0-MD 1-quasi-New 2-CG
   NFREE  =      1    steps in history (QN), initial steepest desc. (CG)
[...]
   -.119E+02 -.260E+01 0.510E+02   0.119E+02 0.276E+01 -.504E+02   0.772E-02 -.703E-02 0.770E-02   -.432E-04 0.176E-04 -.875E-04
   -.109E+01 0.154E+02 0.561E+02   0.108E+01 -.149E+02 -.553E+02   0.159E-02 -.352E-01 -.774E-02   0.512E-05 0.252E-04 -.132E-04
   -.101E+02 0.361E+02 0.806E+02   0.987E+01 -.354E+02 -.791E+02   0.236E-01 -.880E-01 -.227E-01   -.452E-05 0.688E-04 0.462E-04
   -.369E+02 0.324E+02 0.103E+03   0.363E+02 -.324E+02 -.101E+03   0.849E-01 0.390E-02 -.167E-01   -.280E-04 -.548E-04 0.369E-04
   -.503E+02 0.913E+01 0.954E+02   0.497E+02 -.942E+01 -.944E+02   0.612E-01 0.204E-01 0.466E-02   -.113E-04 -.502E-04 -.320E-04
   -.345E+02 -.734E+01 0.674E+02   0.342E+02 0.719E+01 -.667E+02   0.132E-01 0.897E-02 0.111E-01   -.320E-06 0.420E-04 -.846E-04
   -.229E+01 -.267E+01 0.495E+02   0.232E+01 0.261E+01 -.490E+02   0.113E-01 -.115E-04 0.109E-01   0.276E-04 -.232E-04 -.884E-04
   0.812E+01 -.165E+01 0.498E+02   -.809E+01 0.179E+01 -.492E+02   -.257E-03 -.837E-02 0.677E-02   0.589E-04 0.215E-04 -.618E-04
   0.286E+01 0.587E+01 0.534E+02   -.303E+01 -.549E+01 -.526E+02   0.822E-02 -.186E-01 0.145E-01   -.334E-04 0.211E-04 -.523E-04
   -.142E+02 0.137E+02 0.596E+02   0.137E+02 -.133E+02 -.587E+02   0.201E-01 -.189E-01 0.161E-01   -.690E-04 0.905E-04 -.578E-04
   -.254E+02 0.109E+02 0.615E+02   0.249E+02 -.109E+02 -.606E+02   0.295E-01 0.269E-02 0.102E-01   -.644E-04 -.123E-04 -.839E-04
   -.188E+02 0.254E+01 0.554E+02   0.186E+02 -.264E+01 -.548E+02   0.149E-01 0.103E-01 0.950E-02   -.917E-05 -.462E-04 -.101E-03
   0.249E+02 -.418E+01 0.898E+02   -.246E+02 0.398E+01 -.887E+02   0.154E-02 -.469E-02 -.443E-01   0.438E-04 -.490E-05 -.102E-03
   0.373E+02 -.156E+02 0.977E+02   -.371E+02 0.155E+02 -.967E+02   -.630E-02 -.162E-01 -.364E-01   0.335E-04 -.332E-05 -.645E-04
   0.210E+02 -.173E+02 0.935E+02   -.211E+02 0.175E+02 -.922E+02   0.358E-01 -.210E-02 -.208E+00   0.125E-04 -.130E-04 -.165E-03
   -.654E+01 -.498E+01 0.869E+02   0.608E+01 0.528E+01 -.855E+02   0.391E-01 -.146E-01 -.176E+00   0.917E-04 0.544E-04 -.203E-03
   -.173E+02 0.473E+01 0.844E+02   0.169E+02 -.462E+01 -.832E+02   0.299E-01 -.102E-01 -.661E-01   0.964E-04 -.843E-04 -.214E-03
   -.206E+01 0.409E+01 0.839E+02   0.213E+01 -.417E+01 -.827E+02   0.510E-03 -.134E-01 -.758E-01   0.488E-04 -.120E-03 -.192E-03
   0.517E+02 0.917E+01 0.109E+03   -.508E+02 -.937E+01 -.107E+03   -.590E-01 -.170E-01 -.127E+00   0.108E-03 -.852E-04 0.788E-05
   0.785E+02 -.135E+02 0.153E+03   -.779E+02 0.130E+02 -.151E+03   -.259E-01 0.160E-01 0.843E-01   0.120E-03 -.615E-04 0.649E-04
   0.616E+02 -.521E+02 0.163E+03   -.614E+02 0.516E+02 -.162E+03   -.793E-02 0.600E-01 0.100E+00   0.320E-04 -.103E-03 0.258E-05
   0.196E+02 -.553E+02 0.122E+03   -.197E+02 0.551E+02 -.121E+03   0.602E-02 0.232E-01 -.115E+00   0.243E-04 0.306E-04 -.103E-03
   0.149E+01 -.245E+02 0.872E+02   -.144E+01 0.246E+02 -.861E+02   -.543E-02 -.337E-02 -.102E+00   0.553E-04 0.111E-03 -.174E-03
   0.168E+02 0.290E+01 0.840E+02   -.163E+02 -.274E+01 -.828E+02   -.278E-01 -.432E-01 -.617E-01   0.847E-05 -.868E-04 -.141E-03
   0.469E+02 0.301E+02 0.118E+03   -.458E+02 -.296E+02 -.115E+03   -.122E+00 -.766E-01 -.147E+00   0.745E-04 0.111E-04 0.861E-04
   0.808E+02 0.303E+02 0.205E+03   -.801E+02 -.309E+02 -.203E+03   -.123E+00 0.235E-01 0.529E-01   0.394E-04 -.482E-04 0.311E-03
   0.654E+02 -.254E+02 0.298E+03   -.653E+02 0.245E+02 -.297E+03   -.415E-01 0.924E-01 0.985E+00   0.271E-05 -.658E-04 0.445E-03
   0.900E+01 -.815E+02 0.229E+03   -.900E+01 0.808E+02 -.227E+03   -.753E-02 0.122E+00 -.832E-02   -.299E-04 -.765E-04 0.481E-04
   -.130E+02 -.600E+02 0.128E+03   0.131E+02 0.598E+02 -.127E+03   -.206E-01 0.330E-01 -.512E-01   0.708E-06 0.715E-04 -.854E-04
   0.746E+01 -.849E+01 0.883E+02   -.695E+01 0.886E+01 -.869E+02   -.534E-01 -.349E-01 -.186E+00   -.431E-04 0.932E-04 -.139E-03
   0.126E+02 0.299E+02 0.104E+03   -.120E+02 -.289E+02 -.102E+03   -.827E-01 -.663E-01 -.128E+00   0.152E-04 0.152E-03 -.228E-04
   0.319E+02 0.703E+02 0.190E+03   -.315E+02 -.698E+02 -.187E+03   -.781E-01 -.138E+00 0.235E+00   -.299E-04 0.193E-04 0.249E-03
   0.401E+01 0.528E+02 0.281E+03   -.414E+01 -.536E+02 -.278E+03   0.344E-01 0.112E+00 -.454E-01   -.251E-04 -.145E-04 0.302E-03
   -.537E+02 -.235E+02 0.300E+03   0.535E+02 0.227E+02 -.299E+03   0.364E-01 0.938E-01 0.549E+00   -.620E-04 -.862E-04 0.171E-03
   -.611E+02 -.564E+02 0.175E+03   0.609E+02 0.560E+02 -.174E+03   0.121E-01 0.445E-01 -.289E-01   -.394E-05 -.556E-04 -.203E-04
   -.234E+02 -.223E+02 0.995E+02   0.235E+02 0.225E+02 -.982E+02   -.221E-01 0.309E-02 -.180E+00   -.139E-04 0.613E-04 -.195E-03
[...]
   -.322E+02 -.312E+01 0.912E+02   0.320E+02 0.294E+01 -.901E+02   0.256E-01 0.170E-01 -.101E+00   0.530E-05 0.107E-04 -.217E-03
   -.125E+02 -.116E+03 -.418E+03   0.116E+02 0.106E+03 0.413E+03   0.718E+00 0.878E+01 0.433E+01   -.578E-04 0.800E-03 0.234E-03
   -.345E+01 -.800E+01 -.376E+03   0.240E+01 0.535E+01 0.387E+03   0.869E+00 0.108E+01 -.108E+02   -.786E-04 0.704E-04 -.104E-02
   0.188E+02 0.132E+03 -.412E+03   -.198E+02 -.140E+03 0.400E+03   0.729E+00 0.583E+01 0.117E+02   -.205E-03 -.230E-03 0.105E-02
   0.241E+02 0.167E+03 -.383E+03   -.242E+02 -.169E+03 0.384E+03   -.792E-01 -.538E+00 -.769E+00   -.572E-03 -.114E-02 -.480E-03
   0.466E+03 -.366E+03 -.101E+04   -.516E+03 0.378E+03 0.104E+04   0.489E+02 -.136E+02 -.291E+02   -.213E-02 0.732E-03 0.127E-02
   -.475E+03 -.249E+03 -.109E+04   0.520E+03 0.248E+03 0.113E+04   -.449E+02 -.198E+01 -.374E+02   0.162E-02 0.451E-03 0.163E-02
   -.101E+03 -.582E+03 -.375E+03   0.110E+03 0.622E+03 0.335E+03   -.847E+01 -.408E+02 0.397E+02   0.163E-03 0.172E-02 -.141E-02
   0.446E+03 -.712E+02 -.237E+03   -.490E+03 0.713E+02 0.202E+03   0.423E+02 -.283E+01 0.365E+02   -.239E-02 0.147E-03 -.204E-02
   -.516E+03 0.411E+02 -.303E+03   0.562E+03 -.516E+02 0.274E+03   -.464E+02 0.742E+01 0.304E+02   0.204E-02 -.334E-03 -.172E-02
   -.424E+03 0.223E+03 -.112E+04   0.466E+03 -.231E+03 0.115E+04   -.414E+02 0.532E+01 -.317E+02   0.161E-02 -.536E-03 0.171E-02
   0.478E+03 0.903E+02 -.111E+04   -.522E+03 -.854E+02 0.114E+04   0.420E+02 -.740E+01 -.304E+02   -.242E-02 0.548E-04 0.181E-02
   0.407E+03 0.311E+03 -.478E+03   -.457E+03 -.325E+03 0.468E+03   0.480E+02 0.117E+02 0.107E+02   -.254E-02 -.974E-03 -.522E-03
   -.306E+03 0.406E+03 -.464E+03   0.350E+03 -.432E+03 0.452E+03   -.430E+02 0.232E+02 0.125E+02   0.151E-02 -.145E-02 -.554E-03
   0.980E+00 0.382E+01 -.560E+01   0.682E-12 0.568E-13 0.153E-11   -.598E+00 -.405E+01 0.554E+01   -.349E-02 -.595E-03 -.129E-02

 POSITION                                       TOTAL-FORCE (eV/Angst)
      1.25445     -0.72448     17.56403        -0.003197      0.013225     -0.001243
      2.51044      1.45176     17.54909        -0.009950     -0.009567     -0.013949
      3.76681      3.62700     17.55211        -0.004120     -0.003314     -0.012669
      5.02240      5.80227     17.57209         0.008797      0.007035     -0.010501
      6.27871      7.97787     17.58046        -0.001686      0.008916     -0.016105
      7.53461     10.15395     17.57482         0.002361     -0.004081      0.001096
      2.51154     -2.89932     17.56365        -0.014716      0.000484      0.006020
      3.76751     -0.72413     17.52276        -0.004147     -0.003354      0.001613
      5.02314      1.45072     17.48841         0.004951      0.010364     -0.008880
      6.27917      3.62659     17.52729        -0.015806      0.007046      0.001267
      7.53499      5.80263     17.56707        -0.009768      0.002562      0.011482
      8.79116      7.97897     17.58203         0.003059     -0.002221     -0.019201
      3.76760     -5.07350     17.57010        -0.012715     -0.017140     -0.007374
      5.02470     -2.89813     17.52824         0.013992     -0.004651      0.000051
      6.27933     -0.72374     17.47324        -0.018926      0.000649      0.000630
      7.53381      1.45084     17.46313         0.000910      0.000288     -0.001279
      8.78975      3.62680     17.53419         0.018763     -0.002195      0.005596
     10.04689      5.80343     17.57479         0.004780     -0.003148     -0.006698
      5.02239     -7.24931     17.57052         0.006460     -0.016139     -0.011262
      6.27921     -5.07251     17.53647         0.002992     -0.006568      0.006343
      7.53516     -2.89867     17.51249        -0.003203     -0.010964     -0.009160
      8.78920     -0.72423     17.48828         0.018000     -0.002020     -0.024642
     10.04502      1.45082     17.51182        -0.001511      0.007240      0.012943
     11.30247      3.62727     17.56170        -0.005635      0.000682      0.002884
      6.27768     -9.42613     17.57336         0.011518      0.002570     -0.009484
      7.53451     -7.25000     17.55749        -0.000890     -0.000334      0.009846
      8.79060     -5.07322     17.53538         0.008161     -0.009873      0.004758
     10.04507     -2.90005     17.52816        -0.007765      0.007292      0.002458
     11.30101     -0.72477     17.53612         0.014405     -0.004138      0.004839
     12.55814      1.45129     17.56196        -0.005557     -0.001127     -0.001030
      7.53347    -11.60218     17.57313         0.023221     -0.004916     -0.007861
      8.79040     -9.42655     17.56957         0.001350      0.002342     -0.004399
     10.04664     -7.25087     17.56887         0.001727      0.009500     -0.013741
     11.30284     -5.07511     17.56708        -0.004815     -0.006510     -0.003056
     12.55844     -2.90016     17.56333         0.004867      0.002073      0.011332
     13.81443     -0.72465     17.56784         0.000445      0.003740     -0.000799
      1.25353      0.72651     17.56414         0.007653      0.000331      0.005178
      2.51019      2.90238     17.55867        -0.004030     -0.012668      0.003421
      3.76624      5.07718     17.57138         0.009588      0.006271     -0.012053
      5.02268      7.25280     17.57939        -0.000963     -0.002690     -0.006130
      6.27859      9.42839     17.57550         0.001666      0.002819      0.004127
      7.53440     11.60427     17.57147         0.001708      0.005537     -0.002377
      2.51046     -1.44914     17.55367         0.000062      0.009914     -0.011918
      3.76574      0.72679     17.51705         0.012939     -0.001235      0.010070
      5.02248      2.90208     17.51937         0.003469     -0.006020      0.011475
      6.27887      5.07733     17.55945        -0.004458     -0.002815     -0.002058
      7.53502      7.25307     17.58064         0.003447      0.002502      0.003653
      8.79104      9.42946     17.57624         0.002008     -0.014371      0.007483
      3.76716     -3.62374     17.55846         0.005620     -0.001405     -0.003402
      5.02226     -1.44804     17.50051         0.005438     -0.004421     -0.011544
      6.27735      0.72730     17.43535         0.003160     -0.007526      0.019488
      7.53438      2.90184     17.50489         0.000547     -0.001101     -0.022353
      8.79073      5.07756     17.56102         0.003758      0.001491      0.008265
     10.04746      7.25416     17.58218        -0.007513     -0.011550     -0.007187
      5.02294     -5.79934     17.56264        -0.006541     -0.006643     -0.010712
      6.27885     -3.62439     17.51003         0.004976      0.000506      0.007484
      7.53449     -1.44830     17.48475        -0.003135      0.004208      0.004406
      8.79010      0.72708     17.46313        -0.000353      0.001035      0.002585
     10.04629      2.90223     17.53639         0.001489     -0.010518     -0.001012
     11.30296      5.07801     17.57503        -0.005555      0.001408     -0.010514
[...]
     12.55865     -1.44972     17.55797        -0.010392      0.009721     -0.006118
     13.81412      0.72605     17.57119         0.012561      0.000932     -0.004077
      7.86800      1.76309     21.85413        -0.002246     -0.004927      0.021495
      7.76147      0.38873     21.16244         0.008233     -0.004397     -0.004913
      7.55527     -0.85226     22.04028        -0.005518      0.003171      0.001450
      7.36670     -2.16849     21.20708         0.024746     -0.023714     -0.007795
      6.74522      2.06635     22.51896        -0.018279      0.010111     -0.003071
      8.89882      1.79722     22.70931         0.013987      0.006509      0.021799
      8.06706      2.70817     20.91678         0.005705      0.018360     -0.011079
      6.71911      0.48149     20.29432        -0.025640      0.007234     -0.007987
      8.90599      0.22968     20.44672         0.015769     -0.002192      0.009585
      8.63880     -0.94309     22.87599         0.014795      0.005064      0.035976
      6.46994     -0.60854     22.84258        -0.015017      0.011008      0.006984
      6.18263     -2.45387     20.95681        -0.037973      0.001669      0.028896
      8.43227     -2.73942     20.91117        -0.012907      0.008774      0.031500
    total drift:                                0.378605     -0.227750     -0.068191

  FREE ENERGIE OF THE ION-ELECTRON SYSTEM (eV)
  free  energy   TOTEN  =      -798.66852246 eV

  energy  without entropy=     -798.66852246  energy(sigma->0) =     -798.66852246

 reached required accuracy - stopping structural energy minimisation
 writing wavefunctions

 total charge

[...]

 magnetization (x)

# of ion       s       p       d       tot
    1       -0.000  -0.000   0.000  -0.000
    2       -0.000  -0.000   0.000  -0.000
    3       -0.000  -0.000   0.000  -0.000
    4       -0.000  -0.000   0.000  -0.000
    5       -0.000   0.000   0.000   0.000
    6       -0.000  -0.000   0.000  -0.000
    7       -0.000  -0.000   0.000  -0.000
    8       -0.000  -0.000   0.000  -0.000
    9       -0.000  -0.000   0.000  -0.000
   10       -0.000  -0.000   0.000  -0.000
   11       -0.000  -0.000   0.000  -0.000
   12       -0.000  -0.000   0.000  -0.000
   13        0.000   0.000   0.000   0.000
   14       -0.000  -0.000   0.000  -0.000
   15       -0.000  -0.000   0.000  -0.000
   16       -0.000  -0.000   0.000  -0.000
   17       -0.000  -0.000   0.000  -0.000
   18        0.000  -0.000   0.000  -0.000
   19        0.000  -0.000   0.000  -0.000
   20       -0.000  -0.000   0.000  -0.000
   21       -0.000  -0.000   0.000  -0.000
   22       -0.000   0.000   0.000   0.000
   23       -0.000  -0.000   0.000  -0.000
   24       -0.000   0.000   0.000   0.000
   25        0.000   0.000   0.000   0.000
   26        0.000   0.000   0.000   0.000
   27       -0.000  -0.000   0.000  -0.000
   28        0.000  -0.000   0.000  -0.000
   29       -0.000   0.000   0.000  -0.000
   30       -0.000   0.000   0.000  -0.000
   31        0.000  -0.000   0.000  -0.000
   32       -0.000  -0.000   0.000  -0.000
   33        0.000  -0.000   0.000  -0.000
   34        0.000  -0.000   0.000  -0.000
   35        0.000   0.000   0.000   0.000
   36       -0.000  -0.000   0.000  -0.000
   37        0.000   0.000   0.000   0.000
   38        0.000   0.000   0.000   0.000
   39        0.000   0.000   0.000   0.000
   40        0.000   0.000   0.000   0.000
   41       -0.000  -0.000   0.000  -0.000
   42        0.000   0.000   0.000   0.000
   43        0.000   0.000   0.000   0.000
   44        0.000   0.000   0.000   0.000
   45        0.000   0.000   0.000   0.000
   46        0.000  -0.000   0.000  -0.000
   47        0.000  -0.000   0.000  -0.000
   48        0.000  -0.000   0.000  -0.000
   49        0.000  -0.000   0.000  -0.000
   50        0.000  -0.000   0.000  -0.000
   51        0.000   0.000   0.000   0.000
   52        0.000   0.000   0.000   0.000
   53        0.000   0.000   0.000   0.000
   54        0.000   0.000   0.000   0.000
   55        0.000  -0.000   0.000  -0.000
   56        0.000   0.000   0.000   0.000
   57        0.000  -0.000   0.000  -0.000
   58        0.000  -0.000   0.000  -0.000
   59       -0.000  -0.000   0.000  -0.000
   60        0.000  -0.000   0.000  -0.000
[...]
   71        0.000  -0.000   0.000  -0.000
   72        0.000   0.000   0.000   0.000
   73       -0.000   0.000   0.000   0.000
   74        0.000   0.000   0.000   0.000
   75        0.000   0.000   0.000   0.000
   76        0.000   0.000   0.000   0.000
   77        0.000  -0.000   0.000  -0.000
   78       -0.000  -0.000   0.000  -0.000
   79        0.000  -0.000   0.000  -0.000
   80        0.000  -0.000   0.000  -0.000
   81        0.000  -0.000   0.000  -0.000
   82       -0.000  -0.000   0.000  -0.000
   83       -0.000  -0.000   0.000  -0.000
   84        0.000  -0.000   0.000  -0.000
   85       -0.000  -0.000   0.000  -0.000
tot          0.000  -0.000   0.000  -0.000