 vasp.5.4.4.18Apr17-6-g9f103f2a35 (build May 01 2020 14:57:12) complex

 executed on             LinuxIFC date 2021.12.09  22:21:42

 INCAR:
 POTCAR:    PAW_PBE B 06Sep2000
 POTCAR:    PAW_PBE N 08Apr2002
 POTCAR:    PAW_PBE C 08Apr2002
 POTCAR:    PAW_PBE F 08Apr2002
 POTCAR:    PAW_PBE O 08Apr2002

 POTCAR:    PAW_PBE B 06Sep2000
   VRHFIN =B: s2p1

   TITEL  = PAW_PBE B 06Sep2000
   POMASS =   10.811; ZVAL   =    3.000    mass and valenz
   ENMAX  =  318.614; ENMIN  =  238.960 eV

 POTCAR:    PAW_PBE N 08Apr2002
   VRHFIN =N: s2p3

   TITEL  = PAW_PBE N 08Apr2002
   POMASS =   14.001; ZVAL   =    5.000    mass and valenz
   ENMAX  =  400.000; ENMIN  =  300.000 eV

 POTCAR:    PAW_PBE C 08Apr2002
   VRHFIN =C: s2p2

[...]

 POTCAR:    PAW_PBE F 08Apr2002
   VRHFIN =F: s2p5

[...]

 POTCAR:    PAW_PBE O 08Apr2002
   VRHFIN =O: s2p4

   TITEL  = PAW_PBE O 08Apr2002
   POMASS =   16.000; ZVAL   =    6.000    mass and valenz
   ENMAX  =  400.000; ENMIN  =  300.000 eV

 Optimization of the real space projectors (new method)

 maximal supplied QI-value         = 22.11
 optimisation between [QCUT,QGAM] = [ 11.94, 23.88] = [ 39.92,159.67] Ry
 Optimized for a Real-space Cutoff    1.18 Angstroem

   l    n(q)    QCUT    max X(q) W(low)/X(q) W(high)/X(q)  e(spline)
   0      8    11.939    53.033    0.11E-03    0.34E-03    0.60E-07
   0      8    11.939    34.740    0.11E-03    0.34E-03    0.59E-07
   1      8    11.939    30.949    0.22E-03    0.20E-03    0.17E-06
   1      8    11.939    19.518    0.20E-03    0.18E-03    0.16E-06
 Optimization of the real space projectors (new method)

[...]

   l    n(q)    QCUT    max X(q) W(low)/X(q) W(high)/X(q)  e(spline)
   0      8    11.883    14.049    0.56E-04    0.86E-04    0.22E-06
   0      8    11.883     8.945    0.81E-04    0.11E-03    0.30E-06
   1      8    11.883     7.086    0.16E-03    0.15E-04    0.31E-06
   1      8    11.883     6.747    0.15E-03    0.14E-04    0.28E-06
 Optimization of the real space projectors (new method)

 maximal supplied QI-value         = 24.76
 optimisation between [QCUT,QGAM] = [ 11.88, 24.01] = [ 39.54,161.47] Ry
 Optimized for a Real-space Cutoff    1.18 Angstroem

   l    n(q)    QCUT    max X(q) W(low)/X(q) W(high)/X(q)  e(spline)
   0      8    11.883    20.381    0.86E-04    0.11E-03    0.31E-06
   0      8    11.883    15.268    0.94E-04    0.12E-03    0.33E-06
   1      8    11.883     5.964    0.19E-03    0.18E-04    0.33E-06
   1      8    11.883     5.382    0.17E-03    0.20E-04    0.29E-06
  PAW_PBE B 06Sep2000                   :
  PAW_PBE N 08Apr2002                   :
  PAW_PBE C 08Apr2002                   :
  PAW_PBE F 08Apr2002                   :
  PAW_PBE O 08Apr2002                   :

 POSCAR: B N C F O
  positions in direct lattice
  velocities in cartesian coordinates

 METAGGA = SCAN     LMAXTAU =  6    LMIXTAU =  F

 ion  position               nearest neighbor table
   1  0.111  0.056  0.500-  37 1.45  43 1.45  42 1.45
   2  0.111  0.222  0.500-  38 1.45  44 1.45  37 1.45
   3  0.111  0.389  0.500-  45 1.45  38 1.45  39 1.45
   4  0.111  0.556  0.500-  46 1.45  39 1.45  40 1.45
   5  0.111  0.722  0.500-  40 1.45  47 1.45  41 1.45
   6  0.111  0.889  0.500-  48 1.45  41 1.45  42 1.45
   7  0.278  0.056  0.500-  49 1.45  43 1.45  48 1.45
   8  0.278  0.222  0.500-  44 1.45  50 1.45  43 1.45
   9  0.278  0.389  0.500-  45 1.45  51 1.45  44 1.45
  10  0.278  0.556  0.500-  52 1.45  45 1.45  46 1.45
  11  0.278  0.722  0.500-  53 1.45  46 1.45  47 1.45
  12  0.278  0.889  0.500-  54 1.45  47 1.45  48 1.45
  13  0.444  0.056  0.500-  55 1.45  54 1.45  49 1.45
  14  0.444  0.222  0.500-  50 1.45  56 1.45  49 1.45
  15  0.444  0.389  0.499-  51 1.45  57 1.45  50 1.45
  16  0.444  0.556  0.499-  52 1.45  58 1.45  51 1.45
  17  0.444  0.722  0.500-  52 1.45  59 1.45  53 1.45
  18  0.444  0.889  0.500-  53 1.45  60 1.45  54 1.45
  19  0.611  0.055  0.500-  60 1.45  61 1.45  55 1.45
  20  0.611  0.222  0.500-  62 1.45  56 1.45  55 1.45
  21  0.611  0.389  0.499-  57 1.45  63 1.45  56 1.45
  22  0.611  0.556  0.499-  58 1.45  57 1.45  64 1.45
  23  0.611  0.722  0.500-  58 1.45  59 1.45  65 1.45
  24  0.611  0.889  0.500-  59 1.45  66 1.45  60 1.45
  25  0.778  0.056  0.500-  66 1.45  67 1.45  61 1.45
  26  0.778  0.222  0.500-  68 1.45  62 1.45  61 1.45
  27  0.778  0.389  0.500-  69 1.45  62 1.45  63 1.45
  28  0.778  0.556  0.500-  64 1.45  63 1.45  70 1.45
  29  0.778  0.722  0.500-  64 1.45  65 1.45  71 1.45
  30  0.778  0.889  0.500-  65 1.45  66 1.45  72 1.45
  31  0.944  0.056  0.500-  67 1.45  37 1.45  72 1.45
  32  0.944  0.222  0.500-  38 1.45  67 1.45  68 1.45
  33  0.944  0.389  0.500-  39 1.45  68 1.45  69 1.45
  34  0.944  0.556  0.500-  40 1.45  70 1.45  69 1.45
  35  0.944  0.722  0.500-  70 1.45  71 1.45  41 1.45
  36  0.944  0.889  0.500-  72 1.45  71 1.45  42 1.45
  37  0.056  0.111  0.500-   1 1.45  31 1.45   2 1.45
  38  0.056  0.278  0.500-   2 1.45  32 1.45   3 1.45
  39  0.056  0.444  0.500-  33 1.45   4 1.45   3 1.45
  40  0.056  0.611  0.500-   5 1.45  34 1.45   4 1.45
  41  0.056  0.778  0.500-  35 1.45   6 1.45   5 1.45
  42  0.056  0.944  0.500-   1 1.45  36 1.45   6 1.45
  43  0.222  0.111  0.500-   7 1.45   1 1.45   8 1.45
  44  0.222  0.278  0.500-   8 1.45   2 1.45   9 1.45
  45  0.222  0.444  0.500-   3 1.45   9 1.45  10 1.45
  46  0.222  0.611  0.500-   4 1.45  11 1.45  10 1.45
  47  0.222  0.778  0.500-   5 1.45  12 1.45  11 1.45
  48  0.222  0.944  0.500-   6 1.45   7 1.45  12 1.45
  49  0.389  0.111  0.500-   7 1.45  13 1.45  14 1.45
  50  0.389  0.278  0.499-  14 1.45   8 1.45  15 1.45
  51  0.389  0.444  0.499-  15 1.45   9 1.45  16 1.45
  52  0.389  0.611  0.499-  10 1.45  17 1.45  16 1.45
  53  0.389  0.778  0.500-  18 1.45  11 1.45  17 1.45
  54  0.389  0.944  0.500-  12 1.45  13 1.45  18 1.45
  55  0.556  0.111  0.500-  13 1.45  20 1.45  19 1.45
  56  0.556  0.278  0.500-  14 1.45  20 1.45  21 1.45
  57  0.556  0.444  0.498-  21 1.45  15 1.45  22 1.45
  58  0.556  0.611  0.499-  22 1.45  23 1.45  16 1.45
  59  0.556  0.778  0.500-  24 1.45  23 1.45  17 1.45
  60  0.556  0.944  0.500-  18 1.45  19 1.45  24 1.45
[...]
  68  0.889  0.278  0.500-  26 1.45  32 1.45  33 1.45
  69  0.889  0.444  0.500-  27 1.45  34 1.45  33 1.45
  70  0.889  0.611  0.500-  35 1.45  34 1.45  28 1.45
  71  0.889  0.778  0.500-  36 1.45  35 1.45  29 1.45
  72  0.889  0.944  0.500-  36 1.45  31 1.45  30 1.45
  73  0.545  0.469  0.605-  76 1.34  78 1.35  77 1.35  74 1.53
  74  0.494  0.515  0.629-  79 1.37  80 1.37  73 1.53  75 1.55
  75  0.438  0.560  0.605-  82 1.25  81 1.25  74 1.55
  76  0.616  0.540  0.582-  73 1.34
  77  0.591  0.431  0.627-  73 1.35
  78  0.475  0.392  0.583-  73 1.35
  79  0.427  0.439  0.653-  74 1.37
  80  0.569  0.588  0.651-  74 1.37
  81  0.492  0.651  0.596-  75 1.25
  82  0.346  0.499  0.598-  75 1.25

  LATTYP: Found a hexagonal cell.
 ALAT       =    15.0731507304
 C/A-ratio  =     2.3296167479

  Lattice vectors:

 A1 = (   7.5365500567, -13.0537460594,   0.0000000000)
 A2 = (   7.5365500567,  13.0537460594,   0.0000000000)
 A3 = (   0.0000000000,   0.0000000000,  35.1146643856)

Analysis of symmetry for initial positions (statically):
 Subroutine PRICEL returns:
 Original cell was already a primitive cell.

 Routine SETGRP: Setting up the symmetry group for a
 hexagonal supercell.

 Subroutine GETGRP returns: Found  1 space group operations
 (whereof  1 operations were pure point group operations)
 out of a pool of 24 trial point group operations.

The static configuration has the point symmetry C_1 .

Analysis of symmetry for dynamics (positions and initial velocities):
 Subroutine PRICEL returns:
 Original cell was already a primitive cell.

[...]

The dynamic configuration has the point symmetry C_1 .

Analysis of constrained symmetry for selective dynamics:
 Subroutine PRICEL returns:
 Original cell was already a primitive cell.

[...]

The constrained configuration has the point symmetry C_1 .

Analysis of structural, dynamic, and magnetic symmetry:
 Subroutine PRICEL returns:
 Original cell was already a primitive cell.

 Routine SETGRP: Setting up the symmetry group for a
 hexagonal supercell.

 Subroutine GETGRP returns: Found  1 space group operations
 (whereof  1 operations were pure point group operations)
 out of a pool of 24 trial point group operations.

The magnetic configuration has the point symmetry C_1 .

 Subroutine INISYM returns: Found  1 space group operations
 (whereof  1 operations are pure point group operations),
 and found     1 'primitive' translations

 KPOINTS: K-Point Grid

Automatic generation of k-mesh.
Space group operators:
 irot       det(A)        alpha          n_x          n_y          n_z        tau_x        tau_y        tau_z
    1     1.000000     0.000000     1.000000     0.000000     0.000000     0.000000     0.000000     0.000000

 Subroutine IBZKPT returns following result:

 Found      5 irreducible k-points:

 Following reciprocal coordinates:
            Coordinates               Weight
  0.000000  0.000000  0.000000      1.000000
  0.333333  0.000000  0.000000      2.000000
  0.000000  0.333333  0.000000      2.000000
  0.333333  0.333333  0.000000      2.000000
 -0.333333  0.333333  0.000000      2.000000

 Following cartesian coordinates:
            Coordinates               Weight
  0.000000  0.000000  0.000000      1.000000
  0.022114 -0.012768  0.000000      2.000000
  0.022114  0.012768  0.000000      2.000000
  0.044229  0.000000  0.000000      2.000000
  0.000000  0.025535  0.000000      2.000000

 SYSTEM =  SiC
 POSCAR =  B N C F O

 Startparameter for this run:
   NWRITE =      2    write-flag & timer
   PREC   = accura    normal or accurate (medium, high low for compatibility)
   ISTART =      0    job   : 0-new  1-cont  2-samecut
   ICHARG =      2    charge: 1-file 2-atom 10-const
   ISPIN  =      2    spin polarized calculation?
   LNONCOLLINEAR =      F non collinear calculations
   LSORBIT =      F    spin-orbit coupling
   INIWAV =      1    electr: 0-lowe 1-rand  2-diag
   LASPH  =      T    aspherical Exc in radial PAW
   METAGGA=      F    non-selfconsistent MetaGGA calc.

 Electronic Relaxation 1
   ENCUT  =  550.0 eV  40.42 Ry    6.36 a.u.  28.82 28.82 67.15*2*pi/ulx,y,z
   ENINI  =  550.0     initial cutoff
   ENAUG  =  644.9 eV  augmentation charge cutoff
   NELM   =    100;   NELMIN=  2; NELMDL= -5     # of ELM steps
   EDIFF  = 0.1E-04   stopping-criterion for ELM
   LREAL  =      T    real-space projection
   NLSPLINE    = F    spline interpolate recip. space projectors
   LCOMPAT=      F    compatible to vasp.4.4
   GGA_COMPAT  = T    GGA compatible to vasp.4.4-vasp.4.6
   LMAXPAW     = -100 max onsite density
   LMAXMIX     =    2 max onsite mixed and CHGCAR
   VOSKOWN=      0    Vosko Wilk Nusair interpolation
   ROPT   =   -0.00025  -0.00025  -0.00025  -0.00025
   ROPT   =   -0.00025
 Ionic relaxation
   EDIFFG = -.5E-01   stopping-criterion for IOM
   NSW    =    500    number of steps for IOM
   NBLOCK =      1;   KBLOCK =    500    inner block; outer block
   IBRION =      2    ionic relax: 0-MD 1-quasi-New 2-CG
[...]
   -.850E+01 -.341E+01 0.409E+02   0.831E+01 0.332E+01 -.403E+02   0.397E-02 0.216E-02 -.366E-02   -.207E-03 -.999E-04 0.135E-03
   0.816E-01 0.102E+02 0.410E+02   -.833E-01 -.103E+02 -.405E+02   -.758E-04 0.159E-02 0.956E-03   -.805E-05 -.151E-04 0.507E-04
   -.639E+01 0.286E+02 0.548E+02   0.640E+01 -.285E+02 -.543E+02   -.282E-02 0.130E-03 0.124E-01   -.155E-05 0.169E-03 0.107E-03
   -.301E+02 0.317E+02 0.809E+02   0.299E+02 -.314E+02 -.802E+02   -.577E-03 -.171E-01 -.259E-02   -.147E-03 0.294E-03 0.244E-03
   -.425E+02 0.605E+01 0.751E+02   0.421E+02 -.577E+01 -.743E+02   0.115E-01 -.533E-02 0.235E-02   -.336E-03 0.254E-03 0.363E-03
   -.271E+02 -.702E+01 0.516E+02   0.266E+02 0.708E+01 -.508E+02   0.106E-01 -.121E-02 0.125E-01   -.394E-03 0.270E-04 0.304E-03
   -.582E+00 -.267E+01 0.404E+02   0.584E+00 0.270E+01 -.398E+02   0.146E-03 -.170E-02 0.192E-02   -.195E-04 0.138E-04 0.113E-03
   0.798E+01 -.305E+01 0.409E+02   -.779E+01 0.296E+01 -.403E+02   -.473E-02 0.241E-02 -.445E-02   0.171E-03 -.910E-04 0.117E-03
   0.358E+01 0.264E+01 0.420E+02   -.340E+01 -.279E+01 -.414E+02   -.470E-02 0.218E-02 0.139E-02   0.173E-03 -.117E-03 0.113E-03
   -.101E+02 0.110E+02 0.454E+02   0.102E+02 -.110E+02 -.449E+02   -.346E-02 0.895E-03 0.977E-02   0.643E-05 -.207E-04 0.102E-03
   -.206E+02 0.998E+01 0.483E+02   0.205E+02 -.989E+01 -.478E+02   0.420E-03 -.181E-02 0.378E-02   -.164E-03 0.110E-03 0.114E-03
   -.150E+02 0.213E+01 0.437E+02   0.148E+02 -.203E+01 -.431E+02   0.311E-02 -.362E-02 0.340E-02   -.191E-03 0.118E-03 0.123E-03
   0.224E+02 -.313E+01 0.708E+02   -.221E+02 0.326E+01 -.698E+02   -.616E-02 -.155E-01 -.711E-01   0.331E-03 0.947E-04 0.225E-03
   0.330E+02 -.150E+02 0.794E+02   -.323E+02 0.149E+02 -.781E+02   -.143E-01 -.805E-02 -.143E-01   0.572E-03 -.157E-03 0.403E-03
   0.179E+02 -.177E+02 0.775E+02   -.174E+02 0.171E+02 -.762E+02   -.690E-02 0.217E-01 -.530E-03   0.469E-03 -.424E-03 0.410E-03
   -.513E+01 -.458E+01 0.688E+02   0.528E+01 0.415E+01 -.677E+02   0.388E-03 0.207E-01 -.884E-01   0.136E-03 -.384E-03 0.225E-03
   -.142E+02 0.532E+01 0.683E+02   0.141E+02 -.542E+01 -.675E+02   0.910E-03 0.690E-02 0.307E-01   -.107E-03 -.746E-04 0.696E-04
   -.124E+01 0.467E+01 0.672E+02   0.124E+01 -.456E+01 -.664E+02   0.977E-03 -.681E-02 0.230E-02   -.174E-04 0.144E-03 0.764E-04
   0.432E+02 0.113E+02 0.836E+02   -.428E+02 -.110E+02 -.825E+02   -.121E-01 -.897E-02 -.103E+00   0.425E-03 0.274E-03 0.270E-03
   0.670E+02 -.106E+02 0.115E+03   -.661E+02 0.109E+02 -.113E+03   -.425E-01 -.285E-01 -.198E+00   0.661E-03 0.198E-03 0.683E-03
   0.493E+02 -.457E+02 0.132E+03   -.484E+02 0.454E+02 -.130E+03   -.466E-01 0.181E-01 0.453E-01   0.674E-03 -.290E-03 0.103E-02
   0.124E+02 -.473E+02 0.933E+02   -.121E+02 0.462E+02 -.914E+02   -.352E-02 0.762E-01 -.130E+00   0.298E-03 -.741E-03 0.780E-03
   -.314E+00 -.185E+02 0.679E+02   0.318E+00 0.179E+02 -.668E+02   -.706E-03 0.321E-01 -.589E-01   0.139E-04 -.605E-03 0.302E-03
   0.124E+02 0.471E+01 0.676E+02   -.124E+02 -.481E+01 -.668E+02   -.292E-02 0.769E-02 0.351E-01   0.985E-04 -.908E-04 0.637E-04
   0.360E+02 0.287E+02 0.880E+02   -.358E+02 -.285E+02 -.870E+02   -.104E-01 0.755E-03 -.710E-01   0.214E-03 0.221E-03 0.213E-03
   0.724E+02 0.321E+02 0.165E+03   -.719E+02 -.314E+02 -.164E+03   -.348E-01 -.333E-01 0.539E-01   0.395E-03 0.517E-03 0.619E-03
   0.514E+02 -.268E+02 0.219E+03   -.510E+02 0.274E+02 -.217E+03   -.295E-01 -.482E-01 0.285E-01   0.441E-03 0.420E-03 0.129E-02
   0.173E+01 -.689E+02 0.179E+03   -.172E+01 0.685E+02 -.177E+03   -.614E-02 0.448E-01 0.139E+00   0.122E-03 -.422E-03 0.165E-02
   -.119E+02 -.483E+02 0.931E+02   0.116E+02 0.473E+02 -.912E+02   0.764E-02 0.821E-01 -.152E+00   -.223E-03 -.804E-03 0.859E-03
   0.454E+01 -.580E+01 0.687E+02   -.468E+01 0.537E+01 -.677E+02   -.132E-02 0.252E-01 -.621E-01   -.125E-03 -.424E-03 0.253E-03
   0.894E+01 0.228E+02 0.740E+02   -.905E+01 -.228E+02 -.730E+02   0.569E-03 0.303E-02 -.114E+00   -.114E-03 -.126E-04 0.153E-03
   0.266E+02 0.669E+02 0.132E+03   -.265E+02 -.664E+02 -.131E+03   -.145E-01 -.146E-01 -.563E-01   0.106E-03 0.496E-03 0.355E-03
   0.370E+01 0.486E+02 0.253E+03   -.371E+01 -.477E+02 -.252E+03   -.267E-02 -.399E-01 0.505E+00   0.350E-04 0.678E-03 0.795E-03
   -.468E+02 -.286E+02 0.226E+03   0.465E+02 0.292E+02 -.224E+03   0.267E-01 -.442E-01 0.877E-01   -.313E-03 0.481E-03 0.143E-02
   -.492E+02 -.478E+02 0.134E+03   0.484E+02 0.474E+02 -.131E+03   0.564E-01 0.209E-01 0.183E-02   -.684E-03 -.336E-03 0.124E-02
   -.183E+02 -.191E+02 0.770E+02   0.177E+02 0.185E+02 -.758E+02   0.123E-01 0.220E-01 -.237E-01   -.500E-03 -.482E-03 0.491E-03
[...]
   -.869E+01 0.242E+02 0.746E+02   0.881E+01 -.243E+02 -.736E+02   -.321E-02 0.544E-03 -.131E+00   0.993E-04 0.170E-04 0.126E-03
   -.369E+02 0.307E+02 0.914E+02   0.367E+02 -.305E+02 -.905E+02   0.964E-02 -.405E-02 -.492E-01   -.212E-03 0.258E-03 0.220E-03
   -.459E+02 0.117E+02 0.877E+02   0.455E+02 -.114E+02 -.866E+02   0.169E-01 -.136E-01 -.577E-01   -.461E-03 0.310E-03 0.309E-03
   -.247E+02 -.361E+01 0.717E+02   0.244E+02 0.373E+01 -.706E+02   0.121E-01 -.181E-01 -.822E-01   -.396E-03 0.105E-03 0.256E-03
   -.216E+01 0.602E+02 -.383E+03   0.187E+01 -.501E+02 0.391E+03   0.229E+00 -.872E+01 -.612E+01   0.645E-04 0.179E-02 0.216E-03
   0.310E+01 -.780E+02 -.414E+03   -.371E+01 0.839E+02 0.403E+03   0.527E+00 -.479E+01 0.110E+02   0.195E-03 0.209E-02 -.122E-02
   0.646E+01 -.133E+03 -.394E+03   -.647E+01 0.133E+03 0.396E+03   -.751E-01 0.120E+01 -.129E+01   0.124E-02 0.162E-02 -.104E-02
   -.452E+03 0.145E+03 -.345E+03   0.498E+03 -.143E+03 0.314E+03   -.461E+02 0.558E+00 0.344E+02   -.686E-03 0.274E-02 0.120E-02
   -.302E+02 0.581E+03 -.957E+03   0.328E+02 -.627E+03 0.992E+03   -.264E+01 0.469E+02 -.328E+02   0.182E-05 0.204E-02 -.200E-03
   0.454E+03 0.182E+03 -.363E+03   -.502E+03 -.184E+03 0.333E+03   0.472E+02 0.445E+01 0.325E+02   0.848E-03 0.242E-02 0.110E-02
   0.429E+03 -.241E+02 -.111E+04   -.472E+03 0.222E+02 0.114E+04   0.420E+02 0.359E+01 -.330E+02   0.129E-02 0.204E-02 -.249E-02
   -.447E+03 -.662E+02 -.109E+04   0.492E+03 0.684E+02 0.112E+04   -.438E+02 -.501E+00 -.307E+02   -.117E-02 0.232E-02 -.287E-02
   -.332E+03 -.338E+03 -.467E+03   0.378E+03 0.361E+03 0.454E+03   -.445E+02 -.203E+02 0.143E+02   -.237E-02 -.506E-03 0.662E-03
   0.369E+03 -.313E+03 -.494E+03   -.418E+03 0.332E+03 0.486E+03   0.470E+02 -.173E+02 0.104E+02   0.358E-02 -.180E-03 0.297E-03
   0.275E+00 -.511E+01 0.191E+01   -.227E-12 -.568E-13 0.261E-11   -.213E+00 0.510E+01 -.194E+01   0.299E-02 0.163E-01 0.239E-01

 POSITION                                       TOTAL-FORCE (eV/Angst)
      1.25604     -0.72478     17.56345        -0.002545     -0.003396      0.007425
      2.51242      1.45060     17.56406        -0.004741     -0.000294      0.001516
      3.76861      3.62560     17.55777        -0.002674      0.000273      0.005189
      5.02446      5.80125     17.56410        -0.003114      0.000275      0.005993
      6.28024      7.97716     17.56205        -0.000059      0.002156      0.008848
      7.53636     10.15316     17.55851        -0.002327     -0.000092      0.007533
      2.51191     -2.90063     17.55988        -0.001098     -0.000828      0.009055
      3.76848     -0.72501     17.55748        -0.002896     -0.001125     -0.007024
      5.02529      1.45024     17.55221        -0.004249      0.002218     -0.010409
      6.28069      3.62452     17.55238        -0.001449      0.003653     -0.001580
      7.53605      5.80085     17.56607         0.001086      0.002452      0.000658
      8.79215      7.97712     17.56239        -0.000048      0.001613      0.010285
      3.76756     -5.07648     17.56357         0.002548      0.000725      0.005246
      5.02405     -2.90042     17.54914        -0.000920     -0.002468     -0.006282
      6.28069     -0.72523     17.52001        -0.002446     -0.000288      0.008621
      7.53645      1.45076     17.53299        -0.002741      0.005948      0.001239
      8.79143      3.62438     17.55366         0.003824      0.004134     -0.003504
     10.04760      5.80107     17.56548         0.005699      0.002980      0.005118
      5.02342     -7.25208     17.56287         0.003470     -0.000368      0.010051
      6.27997     -5.07613     17.56098        -0.000790     -0.001849     -0.001215
      7.53637     -2.90000     17.52874        -0.002114     -0.003331      0.003146
      8.79216     -0.72512     17.51142         0.001009     -0.001994      0.012846
     10.04695      1.45026     17.54696         0.009364      0.004706     -0.006922
     11.30351      3.62551     17.55910         0.000564      0.001112      0.004252
      6.27980     -9.42761     17.55912        -0.001975      0.000790      0.007372
      7.53611     -7.25184     17.56105        -0.001849     -0.001517      0.008290
      8.79250     -5.07615     17.55973        -0.003293      0.000721     -0.002365
     10.04869     -2.90030     17.54115        -0.001456     -0.002381     -0.004757
     11.30414     -0.72504     17.54785         0.000582      0.000836     -0.009152
     12.55992      1.45047     17.56229         0.003446      0.001578     -0.000900
      7.53624    -11.60295     17.56170        -0.002090     -0.001250      0.009787
      8.79254     -9.42752     17.55829        -0.002794     -0.000410      0.007763
     10.04872     -7.25195     17.56173        -0.003861     -0.001590      0.009446
     11.30485     -5.07633     17.56187        -0.003634     -0.000461      0.002982
     12.56078     -2.90056     17.55613        -0.000916     -0.000523     -0.001498
     13.81664     -0.72477     17.56089         0.000175     -0.002216      0.006317
      1.25596      0.72563     17.56491        -0.000506     -0.003365     -0.011040
      2.51197      2.90095     17.56017        -0.000246     -0.000800     -0.001398
      3.76810      5.07635     17.56088        -0.000232      0.001644     -0.000939
      5.02422      7.25194     17.56506        -0.001125      0.001690     -0.011407
      6.28028      9.42781     17.55781         0.000008     -0.001782      0.004316
      7.53635     11.60375     17.56066        -0.000250     -0.004060     -0.000067
      2.51208     -1.45017     17.56327        -0.000050     -0.001078     -0.010950
      3.76848      0.72528     17.56387         0.000184     -0.000141     -0.019408
      5.02392      2.90040     17.55042         0.005798      0.001926      0.010687
      6.28008      5.07579     17.56443         0.000487     -0.000080     -0.011991
      7.53615      7.25172     17.56491         0.000148      0.002153     -0.009448
      8.79231      9.42779     17.55887         0.001159     -0.002300      0.003000
      3.76791     -3.62594     17.55968         0.000470     -0.000222     -0.004507
      5.02427     -1.45032     17.53953         0.002210     -0.000669      0.007522
      6.28061      0.72441     17.53091         0.003025      0.004991      0.006307
      7.53595      2.90050     17.53499         0.001578     -0.000600      0.016417
      8.79193      5.07567     17.56603         0.001169      0.000512     -0.014172
     10.04807      7.25183     17.56538         0.001884      0.002473     -0.008747
      5.02376     -5.80147     17.56572         0.003557     -0.001832     -0.014596
      6.28022     -3.62564     17.54837         0.000951     -0.000487      0.000255
      7.53639     -1.45074     17.49884        -0.000654      0.001890      0.000645
      8.79197      0.72442     17.52302        -0.003697      0.004048      0.000797
     10.04817      2.90039     17.55051        -0.001308      0.001649      0.005814
     11.30395      5.07632     17.56290         0.005000     -0.000316     -0.003188
[...]
      8.79235     -7.97698     17.55882         0.000643     -0.001271      0.001934
     10.04857     -5.80139     17.56489         0.000140     -0.002797     -0.017125
     11.30472     -3.62585     17.55467        -0.000576     -0.001296     -0.000792
     12.56061     -1.45012     17.55675         0.000314     -0.002655     -0.003442
     13.81649      0.72563     17.56382         0.002416     -0.004190     -0.012197
      7.63782     -0.99718     21.22742        -0.002746     -0.030576      0.010243
      7.60039      0.27761     22.07777         0.001760      0.013403      0.030273
      7.51722      1.59326     21.25444         0.039301     -0.005225     -0.023112
      8.71408     -1.00170     20.42119        -0.005973      0.014164      0.007994
      7.69977     -2.09296     22.00543        -0.002127     -0.004777     -0.001339
      6.53285     -1.09139     20.46627         0.002257      0.010350      0.009022
      6.52827      0.14903     22.91559        -0.017821      0.017671     -0.009272
      8.72221      0.25385     22.85838         0.013804      0.009080     -0.000068
      8.61223      2.08229     20.91328        -0.014427     -0.012280      0.002777
      6.36820      2.00587     21.00874        -0.022066      0.000349     -0.008299
    total drift:                                0.064432      0.009088     -0.002625

  FREE ENERGIE OF THE ION-ELECTRON SYSTEM (eV)
  free  energy   TOTEN  =      -771.46779898 eV

  energy  without entropy=     -771.43778107  energy(sigma->0) =     -771.45279003

 reached required accuracy - stopping structural energy minimisation
 writing wavefunctions

 total charge

[...]

 magnetization (x)

# of ion       s       p       d       tot
    1        0.000   0.000   0.000   0.000
    2        0.000   0.000   0.000   0.000
    3        0.000   0.000   0.000   0.000
    4        0.000   0.000   0.000   0.000
    5        0.000   0.000   0.000   0.000
    6        0.000   0.000   0.000   0.000
    7        0.000   0.000   0.000   0.000
    8        0.000   0.000   0.000   0.000
    9        0.000   0.000   0.000   0.000
   10        0.000   0.000   0.000   0.000
   11        0.000   0.000   0.000   0.000
   12        0.000   0.000   0.000   0.000
   13        0.000   0.000   0.000   0.000
   14        0.000   0.000   0.000   0.000
   15        0.000   0.000   0.000   0.000
   16        0.000   0.000   0.000   0.000
   17        0.000   0.000   0.000   0.000
   18        0.000   0.000   0.000   0.000
   19        0.000   0.000   0.000   0.000
   20        0.000   0.000   0.000   0.000
   21        0.000   0.000   0.000   0.000
   22        0.000   0.000   0.000   0.000
   23        0.000   0.000   0.000   0.000
   24        0.000   0.000   0.000   0.000
   25        0.000   0.000   0.000   0.000
   26        0.000   0.000   0.000   0.000
   27        0.000   0.000   0.000   0.000
   28        0.000   0.000   0.000   0.000
   29        0.000   0.000   0.000   0.000
   30        0.000   0.000   0.000   0.000
   31        0.000   0.000   0.000   0.000
   32        0.000   0.000   0.000   0.000
   33        0.000   0.000   0.000   0.000
   34        0.000   0.000   0.000   0.000
   35        0.000   0.000   0.000   0.000
   36        0.000   0.000   0.000   0.000
   37       -0.000  -0.001   0.000  -0.001
   38       -0.000  -0.001   0.000  -0.001
   39       -0.000  -0.001   0.000  -0.001
   40       -0.000  -0.001   0.000  -0.001
   41       -0.000  -0.001   0.000  -0.001
   42       -0.000  -0.001   0.000  -0.001
   43       -0.000  -0.001   0.000  -0.001
   44       -0.000  -0.001   0.000  -0.001
   45       -0.000  -0.001   0.000  -0.001
   46       -0.000  -0.001   0.000  -0.001
   47       -0.000  -0.001   0.000  -0.001
   48       -0.000  -0.001   0.000  -0.001
   49       -0.000  -0.001   0.000  -0.001
   50       -0.000  -0.001   0.000  -0.001
   51       -0.000  -0.001   0.000  -0.001
   52       -0.000  -0.001   0.000  -0.001
   53       -0.000  -0.001   0.000  -0.001
   54       -0.000  -0.001   0.000  -0.001
   55       -0.000  -0.001   0.000  -0.001
   56       -0.000  -0.001   0.000  -0.001
   57       -0.000  -0.001   0.000  -0.001
   58       -0.000  -0.001   0.000  -0.001
   59       -0.000  -0.001   0.000  -0.001
   60       -0.000  -0.001   0.000  -0.001
[...]
   68       -0.000  -0.001   0.000  -0.001
   69       -0.000  -0.001   0.000  -0.001
   70       -0.000  -0.001   0.000  -0.001
   71       -0.000  -0.001   0.000  -0.001
   72       -0.000  -0.001   0.000  -0.001
   73        0.000   0.000   0.000   0.000
   74        0.000   0.001   0.000   0.001
   75        0.001   0.006   0.000   0.007
   76       -0.000  -0.000   0.000  -0.000
   77        0.000   0.000   0.000   0.000
   78       -0.000  -0.000   0.000  -0.000
   79       -0.000  -0.002   0.000  -0.002
   80       -0.000  -0.002   0.000  -0.002
   81       -0.001  -0.084   0.000  -0.085
   82       -0.001  -0.078   0.000  -0.079
tot         -0.001  -0.189   0.000  -0.190