 vasp.5.4.4.18Apr17-6-g9f103f2a35 (build May 01 2020 14:57:12) complex

 executed on             LinuxIFC date 2021.08.07  23:08:14

 INCAR:
 POTCAR:    PAW_PBE B 06Sep2000
 POTCAR:    PAW_PBE N 08Apr2002
 POTCAR:    PAW_PBE C 08Apr2002
 POTCAR:    PAW_PBE F 08Apr2002
 POTCAR:    PAW_PBE O 08Apr2002

 POTCAR:    PAW_PBE B 06Sep2000
   VRHFIN =B: s2p1

   TITEL  = PAW_PBE B 06Sep2000
   POMASS =   10.811; ZVAL   =    3.000    mass and valenz
   ENMAX  =  318.614; ENMIN  =  238.960 eV

 POTCAR:    PAW_PBE N 08Apr2002
   VRHFIN =N: s2p3

   TITEL  = PAW_PBE N 08Apr2002
   POMASS =   14.001; ZVAL   =    5.000    mass and valenz
   ENMAX  =  400.000; ENMIN  =  300.000 eV

 POTCAR:    PAW_PBE C 08Apr2002
   VRHFIN =C: s2p2

[...]

 POTCAR:    PAW_PBE F 08Apr2002
   VRHFIN =F: s2p5

[...]

 POTCAR:    PAW_PBE O 08Apr2002
   VRHFIN =O: s2p4

   TITEL  = PAW_PBE O 08Apr2002
   POMASS =   16.000; ZVAL   =    6.000    mass and valenz
   ENMAX  =  400.000; ENMIN  =  300.000 eV

 Optimization of the real space projectors (new method)

 maximal supplied QI-value         = 22.11
 optimisation between [QCUT,QGAM] = [ 11.94, 23.88] = [ 39.92,159.67] Ry
 Optimized for a Real-space Cutoff    1.18 Angstroem

   l    n(q)    QCUT    max X(q) W(low)/X(q) W(high)/X(q)  e(spline)
   0      8    11.939    53.033    0.11E-03    0.34E-03    0.60E-07
   0      8    11.939    34.740    0.11E-03    0.34E-03    0.59E-07
   1      8    11.939    30.949    0.22E-03    0.20E-03    0.17E-06
   1      8    11.939    19.518    0.20E-03    0.18E-03    0.16E-06
 Optimization of the real space projectors (new method)

[...]

   l    n(q)    QCUT    max X(q) W(low)/X(q) W(high)/X(q)  e(spline)
   0      8    11.883    14.049    0.56E-04    0.86E-04    0.22E-06
   0      8    11.883     8.945    0.81E-04    0.11E-03    0.30E-06
   1      8    11.883     7.086    0.16E-03    0.15E-04    0.31E-06
   1      8    11.883     6.747    0.15E-03    0.14E-04    0.28E-06
 Optimization of the real space projectors (new method)

 maximal supplied QI-value         = 24.76
 optimisation between [QCUT,QGAM] = [ 11.88, 24.01] = [ 39.54,161.47] Ry
 Optimized for a Real-space Cutoff    1.18 Angstroem

   l    n(q)    QCUT    max X(q) W(low)/X(q) W(high)/X(q)  e(spline)
   0      8    11.883    20.381    0.86E-04    0.11E-03    0.31E-06
   0      8    11.883    15.268    0.94E-04    0.12E-03    0.33E-06
   1      8    11.883     5.964    0.19E-03    0.18E-04    0.33E-06
   1      8    11.883     5.382    0.17E-03    0.20E-04    0.29E-06
  PAW_PBE B 06Sep2000                   :
  PAW_PBE N 08Apr2002                   :
  PAW_PBE C 08Apr2002                   :
  PAW_PBE F 08Apr2002                   :
  PAW_PBE O 08Apr2002                   :

 POSCAR: B N C F O
  positions in direct lattice
  velocities in cartesian coordinates

 METAGGA = SCAN     LMAXTAU =  6    LMIXTAU =  F

 ion  position               nearest neighbor table
   1  0.109  0.052  0.495-  42 1.45  37 1.45  43 1.45
   2  0.109  0.219  0.495-  44 1.45  38 1.45  37 1.45
   3  0.109  0.385  0.495-  45 1.45  39 1.45  38 1.45
   4  0.109  0.552  0.495-  46 1.45  39 1.45  40 1.45
   5  0.109  0.718  0.495-  47 1.45  40 1.45  41 1.45
   6  0.109  0.885  0.495-  48 1.45  41 1.45  42 1.45
   7  0.276  0.052  0.495-  48 1.45  43 1.45  49 1.45
   8  0.276  0.219  0.495-  44 1.45  50 1.45  43 1.45
   9  0.276  0.385  0.495-  51 1.45  45 1.45  44 1.45
  10  0.276  0.552  0.495-  52 1.45  46 1.45  45 1.45
  11  0.276  0.718  0.495-  53 1.45  46 1.45  47 1.45
  12  0.276  0.885  0.495-  47 1.45  54 1.45  48 1.45
  13  0.443  0.052  0.495-  54 1.45  55 1.45  49 1.45
  14  0.443  0.219  0.495-  56 1.45  50 1.45  49 1.45
  15  0.443  0.385  0.495-  51 1.45  57 1.45  50 1.45
  16  0.443  0.552  0.494-  52 1.45  58 1.45  51 1.45
  17  0.443  0.718  0.495-  52 1.45  59 1.45  53 1.45
  18  0.443  0.885  0.495-  53 1.45  60 1.45  54 1.45
  19  0.609  0.052  0.495-  60 1.45  61 1.45  55 1.45
  20  0.609  0.218  0.495-  56 1.45  55 1.45  62 1.45
  21  0.609  0.385  0.495-  57 1.45  56 1.45  63 1.45
  22  0.609  0.552  0.495-  58 1.45  57 1.45  64 1.45
  23  0.609  0.718  0.495-  59 1.45  58 1.45  65 1.45
  24  0.609  0.885  0.495-  59 1.45  60 1.45  66 1.45
  25  0.776  0.052  0.495-  66 1.45  67 1.45  61 1.45
  26  0.776  0.218  0.495-  61 1.45  68 1.45  62 1.45
  27  0.776  0.385  0.495-  63 1.45  62 1.45  69 1.45
  28  0.776  0.552  0.495-  64 1.45  63 1.45  70 1.45
  29  0.776  0.718  0.495-  65 1.45  64 1.45  71 1.45
  30  0.776  0.885  0.495-  65 1.45  66 1.45  72 1.45
  31  0.943  0.052  0.495-  72 1.45  37 1.45  67 1.45
  32  0.943  0.218  0.495-  38 1.45  67 1.45  68 1.45
  33  0.943  0.385  0.495-  39 1.45  68 1.45  69 1.45
  34  0.943  0.552  0.495-  40 1.45  70 1.45  69 1.45
  35  0.943  0.718  0.495-  70 1.45  71 1.45  41 1.45
  36  0.943  0.885  0.495-  71 1.45  72 1.45  42 1.45
  37  0.054  0.107  0.495-   1 1.45  31 1.45   2 1.45
  38  0.054  0.274  0.495-  32 1.45   2 1.45   3 1.45
  39  0.054  0.441  0.495-  33 1.45   3 1.45   4 1.45
  40  0.054  0.607  0.495-  34 1.45   5 1.45   4 1.45
  41  0.054  0.774  0.495-   6 1.45  35 1.45   5 1.45
  42  0.054  0.941  0.495-   1 1.45   6 1.45  36 1.45
  43  0.220  0.107  0.495-   7 1.45   1 1.45   8 1.45
  44  0.220  0.274  0.495-   8 1.45   2 1.45   9 1.45
  45  0.220  0.441  0.495-   3 1.45   9 1.45  10 1.45
  46  0.220  0.607  0.495-   4 1.45  11 1.45  10 1.45
  47  0.220  0.774  0.495-   5 1.45  12 1.45  11 1.45
  48  0.220  0.941  0.495-   6 1.45   7 1.45  12 1.45
  49  0.387  0.107  0.495-  14 1.45   7 1.45  13 1.45
  50  0.387  0.274  0.495-  14 1.45   8 1.45  15 1.45
  51  0.387  0.441  0.494-  15 1.45   9 1.45  16 1.45
  52  0.387  0.607  0.495-  10 1.45  16 1.45  17 1.45
  53  0.387  0.774  0.495-  18 1.45  11 1.45  17 1.45
  54  0.387  0.941  0.495-  13 1.45  12 1.45  18 1.45
  55  0.554  0.107  0.495-  13 1.45  20 1.45  19 1.45
  56  0.554  0.274  0.495-  20 1.45  14 1.45  21 1.45
  57  0.554  0.441  0.495-  22 1.45  21 1.45  15 1.45
  58  0.554  0.607  0.494-  22 1.45  23 1.45  16 1.45
  59  0.554  0.774  0.495-  24 1.45  23 1.45  17 1.45
  60  0.554  0.941  0.495-  19 1.45  18 1.45  24 1.45
[...]
  74  0.542  0.466  0.629-  80 1.36  81 1.36  75 1.55  73 1.55
  75  0.498  0.524  0.607-  82 1.36  83 1.36  76 1.54  74 1.55
  76  0.455  0.580  0.631-  85 1.37  84 1.37  75 1.54  77 1.57
  77  0.393  0.617  0.606-  87 1.24  88 1.24  76 1.57
  78  0.685  0.502  0.589-  73 1.34
  79  0.541  0.362  0.578-  73 1.34
  80  0.464  0.384  0.647-  74 1.36
  81  0.608  0.529  0.656-  74 1.36
  82  0.574  0.594  0.584-  75 1.36
  83  0.423  0.454  0.584-  75 1.36
  84  0.396  0.514  0.659-  76 1.37
  85  0.536  0.660  0.648-  76 1.37
  86  0.631  0.375  0.629-  73 1.34
  87  0.446  0.703  0.592-  77 1.24
  88  0.299  0.556  0.605-  77 1.24

  LATTYP: Found a hexagonal cell.
 ALAT       =    15.0731507304
 C/A-ratio  =     2.3296167479

  Lattice vectors:

 A1 = (   7.5365500567, -13.0537460594,   0.0000000000)
 A2 = (   7.5365500567,  13.0537460594,   0.0000000000)
 A3 = (   0.0000000000,   0.0000000000,  35.1146643856)

Analysis of symmetry for initial positions (statically):
 Subroutine PRICEL returns:
 Original cell was already a primitive cell.

 Routine SETGRP: Setting up the symmetry group for a
 hexagonal supercell.

 Subroutine GETGRP returns: Found  1 space group operations
 (whereof  1 operations were pure point group operations)
 out of a pool of 24 trial point group operations.

The static configuration has the point symmetry C_1 .

Analysis of symmetry for dynamics (positions and initial velocities):
 Subroutine PRICEL returns:
 Original cell was already a primitive cell.

[...]

The dynamic configuration has the point symmetry C_1 .

Analysis of constrained symmetry for selective dynamics:
 Subroutine PRICEL returns:
 Original cell was already a primitive cell.

[...]

The constrained configuration has the point symmetry C_1 .

Analysis of structural, dynamic, and magnetic symmetry:
 Subroutine PRICEL returns:
 Original cell was already a primitive cell.

 Routine SETGRP: Setting up the symmetry group for a
 hexagonal supercell.

 Subroutine GETGRP returns: Found  1 space group operations
 (whereof  1 operations were pure point group operations)
 out of a pool of 24 trial point group operations.

The magnetic configuration has the point symmetry C_1 .

 Subroutine INISYM returns: Found  1 space group operations
 (whereof  1 operations are pure point group operations),
 and found     1 'primitive' translations

 KPOINTS: K-Point Grid

Automatic generation of k-mesh.
Space group operators:
 irot       det(A)        alpha          n_x          n_y          n_z        tau_x        tau_y        tau_z
    1     1.000000     0.000000     1.000000     0.000000     0.000000     0.000000     0.000000     0.000000

 Subroutine IBZKPT returns following result:

 Found      5 irreducible k-points:

 Following reciprocal coordinates:
            Coordinates               Weight
  0.000000  0.000000  0.000000      1.000000
  0.333333  0.000000  0.000000      2.000000
  0.000000  0.333333  0.000000      2.000000
  0.333333  0.333333  0.000000      2.000000
 -0.333333  0.333333  0.000000      2.000000

 Following cartesian coordinates:
            Coordinates               Weight
  0.000000  0.000000  0.000000      1.000000
  0.022114 -0.012768  0.000000      2.000000
  0.022114  0.012768  0.000000      2.000000
  0.044229  0.000000  0.000000      2.000000
  0.000000  0.025535  0.000000      2.000000

 SYSTEM =  SiC
 POSCAR =  B N C F O

 Startparameter for this run:
   NWRITE =      2    write-flag & timer
   PREC   = accura    normal or accurate (medium, high low for compatibility)
   ISTART =      1    job   : 0-new  1-cont  2-samecut
   ICHARG =      0    charge: 1-file 2-atom 10-const
   ISPIN  =      2    spin polarized calculation?
   LNONCOLLINEAR =      F non collinear calculations
   LSORBIT =      F    spin-orbit coupling
   INIWAV =      1    electr: 0-lowe 1-rand  2-diag
   LASPH  =      T    aspherical Exc in radial PAW
   METAGGA=      F    non-selfconsistent MetaGGA calc.

 Electronic Relaxation 1
   ENCUT  =  550.0 eV  40.42 Ry    6.36 a.u.  28.82 28.82 67.15*2*pi/ulx,y,z
   ENINI  =  550.0     initial cutoff
   ENAUG  =  644.9 eV  augmentation charge cutoff
   NELM   =    100;   NELMIN=  2; NELMDL=  0     # of ELM steps
   EDIFF  = 0.1E-04   stopping-criterion for ELM
   LREAL  =      T    real-space projection
   NLSPLINE    = F    spline interpolate recip. space projectors
   LCOMPAT=      F    compatible to vasp.4.4
   GGA_COMPAT  = T    GGA compatible to vasp.4.4-vasp.4.6
   LMAXPAW     = -100 max onsite density
   LMAXMIX     =    2 max onsite mixed and CHGCAR
   VOSKOWN=      0    Vosko Wilk Nusair interpolation
   ROPT   =   -0.00025  -0.00025  -0.00025  -0.00025
   ROPT   =   -0.00025
 Ionic relaxation
   EDIFFG = -.2E-01   stopping-criterion for IOM
   NSW    =    500    number of steps for IOM
   NBLOCK =      1;   KBLOCK =    500    inner block; outer block
   IBRION =      2    ionic relax: 0-MD 1-quasi-New 2-CG
   NFREE  =      1    steps in history (QN), initial steepest desc. (CG)
[...]
   -.370E+02 -.693E+01 0.840E+02   0.366E+02 0.711E+01 -.831E+02   0.246E-01 -.998E-03 0.133E-02   -.357E-02 0.102E-02 -.111E-02
   -.240E+01 -.178E+01 0.650E+02   0.237E+01 0.186E+01 -.643E+02   0.358E-02 -.255E-02 0.528E-02   0.558E-03 -.622E-03 -.906E-03
   0.999E+01 0.579E+00 0.665E+02   -.978E+01 -.603E+00 -.657E+02   -.896E-02 0.227E-02 0.288E-02   0.233E-02 0.196E-03 -.125E-02
   0.445E+01 0.825E+01 0.728E+02   -.413E+01 -.844E+01 -.720E+02   -.171E-01 0.868E-02 0.722E-02   0.232E-02 -.100E-02 -.790E-03
   -.167E+02 0.147E+02 0.800E+02   0.168E+02 -.149E+02 -.793E+02   -.880E-02 0.908E-02 0.110E-01   0.249E-02 -.262E-02 -.857E-03
   -.302E+02 0.945E+01 0.792E+02   0.301E+02 -.950E+01 -.785E+02   0.481E-03 -.184E-02 0.591E-02   0.928E-03 -.133E-02 -.193E-02
   -.214E+02 0.142E+01 0.704E+02   0.213E+02 -.134E+01 -.698E+02   0.583E-02 -.267E-02 0.550E-02   -.529E-03 -.373E-03 -.142E-02
   0.268E+02 -.284E+01 0.113E+03   -.265E+02 0.303E+01 -.112E+03   -.107E-01 -.176E-01 -.546E-01   0.415E-02 -.281E-02 -.194E-02
   0.426E+02 -.119E+02 0.127E+03   -.419E+02 0.120E+02 -.125E+03   -.385E-01 -.164E-01 -.105E-01   0.906E-02 -.484E-03 -.178E-02
   0.263E+02 -.163E+02 0.132E+03   -.254E+02 0.158E+02 -.130E+03   -.399E-01 0.155E-01 -.508E-01   0.836E-02 0.723E-04 -.261E-03
   -.786E+01 -.803E+01 0.123E+03   0.825E+01 0.730E+01 -.122E+03   -.725E-02 0.423E-01 -.781E-01   0.676E-02 -.587E-02 -.206E-02
   -.220E+02 0.997E+00 0.113E+03   0.221E+02 -.139E+01 -.111E+03   0.714E-02 0.226E-01 -.653E-01   0.132E-02 -.708E-02 -.577E-02
   -.414E+01 0.230E+01 0.108E+03   0.413E+01 -.231E+01 -.107E+03   0.107E-02 -.367E-02 -.680E-01   0.113E-03 -.436E-02 -.363E-02
   0.554E+02 0.841E+01 0.132E+03   -.551E+02 -.826E+01 -.131E+03   -.223E-01 -.114E-01 -.323E-01   -.170E-03 -.991E-03 -.234E-02
   0.832E+02 -.112E+02 0.172E+03   -.825E+02 0.118E+02 -.171E+03   -.627E-01 -.385E-01 -.346E-01   0.561E-02 0.382E-02 -.235E-02
   0.667E+02 -.454E+02 0.196E+03   -.658E+02 0.457E+02 -.194E+03   -.968E-01 -.205E-01 0.212E-01   0.891E-02 0.431E-02 -.313E-02
   0.221E+02 -.588E+02 0.170E+03   -.215E+02 0.580E+02 -.167E+03   -.421E-01 0.882E-01 0.421E-01   0.418E-02 -.168E-02 -.319E-02
   -.210E+00 -.322E+02 0.124E+03   0.248E+00 0.311E+02 -.123E+03   0.145E-02 0.786E-01 -.996E-02   -.101E-02 -.812E-02 -.144E-02
   0.166E+02 -.126E+01 0.111E+03   -.166E+02 0.853E+00 -.110E+03   -.831E-02 0.157E-01 -.529E-01   -.301E-02 -.771E-02 -.426E-02
   0.533E+02 0.287E+02 0.147E+03   -.533E+02 -.288E+02 -.146E+03   -.249E-01 0.846E-02 -.122E-01   -.849E-03 -.656E-02 0.394E-03
   0.927E+02 0.253E+02 0.227E+03   -.924E+02 -.248E+02 -.226E+03   -.564E-01 -.227E-01 -.665E-01   -.257E-05 0.356E-02 -.227E-02
   0.666E+02 -.270E+02 0.296E+03   -.663E+02 0.279E+02 -.294E+03   -.779E-01 -.527E-01 0.121E+00   0.343E-02 0.788E-02 0.776E-02
   0.799E+01 -.698E+02 0.262E+03   -.784E+01 0.703E+02 -.259E+03   -.630E-01 -.149E-01 -.215E-01   0.318E-02 0.361E-02 0.347E-03
   -.172E+02 -.638E+02 0.176E+03   0.168E+02 0.629E+02 -.173E+03   0.288E-01 0.154E+00 0.573E-01   -.311E-02 -.629E-02 -.116E-02
   0.611E+01 -.136E+02 0.124E+03   -.650E+01 0.128E+02 -.122E+03   0.796E-02 0.622E-01 -.604E-01   -.487E-02 -.585E-02 0.363E-02
   0.161E+02 0.323E+02 0.135E+03   -.164E+02 -.325E+02 -.134E+03   -.248E-02 0.135E-01 -.632E-01   -.172E-02 -.466E-03 0.340E-02
   0.440E+02 0.772E+02 0.227E+03   -.440E+02 -.769E+02 -.226E+03   -.363E-01 -.172E-01 0.121E+00   -.862E-03 -.140E-02 -.595E-02
   0.688E+01 0.368E+02 0.324E+03   -.687E+01 -.362E+02 -.323E+03   -.113E-02 -.241E-01 0.588E-01   -.125E-02 0.716E-02 0.105E-02
   -.530E+02 -.276E+02 0.309E+03   0.528E+02 0.285E+02 -.307E+03   0.536E-01 -.669E-01 0.162E+00   -.495E-02 0.109E-01 0.869E-02
   -.654E+02 -.497E+02 0.211E+03   0.645E+02 0.501E+02 -.209E+03   0.139E+00 -.284E-01 0.357E-01   -.112E-01 0.246E-02 -.219E-02
   -.287E+02 -.228E+02 0.137E+03   0.278E+02 0.223E+02 -.135E+03   0.462E-01 0.377E-01 -.486E-01   -.126E-01 -.268E-02 0.159E-02
[...]
   0.108E+00 -.453E+02 -.377E+03   -.213E-01 0.486E+02 0.389E+03   -.162E+00 -.165E+01 -.108E+02   0.142E-02 0.347E-02 -.950E-03
   -.250E+01 -.167E+03 -.408E+03   0.428E-01 0.174E+03 0.396E+03   0.225E+01 -.547E+01 0.117E+02   0.103E-02 0.127E-02 0.885E-03
   0.827E+01 -.188E+03 -.375E+03   -.843E+01 0.189E+03 0.375E+03   -.172E+00 0.559E+00 -.786E+00   0.235E-02 0.275E-02 -.135E-02
   -.543E+03 0.314E+03 -.402E+03   0.596E+03 -.318E+03 0.376E+03   -.529E+02 0.491E+01 0.259E+02   0.709E-02 -.108E-01 -.527E-02
   0.412E+03 0.296E+03 -.237E+03   -.454E+03 -.297E+03 0.196E+03   0.413E+02 0.305E+01 0.418E+02   0.225E-01 0.920E-02 0.106E-01
   0.586E+03 0.154E+03 -.107E+04   -.637E+03 -.153E+03 0.110E+04   0.504E+02 0.203E+01 -.263E+02   0.127E-01 0.146E-01 -.264E-02
   -.426E+03 0.161E+03 -.122E+04   0.466E+03 -.160E+03 0.126E+04   -.400E+02 0.118E+01 -.405E+02   0.974E-02 0.211E-01 0.262E-01
   -.502E+03 -.568E+02 -.251E+03   0.548E+03 0.582E+02 0.218E+03   -.447E+02 0.172E+01 0.338E+02   0.108E-01 0.164E-01 -.114E-01
   0.504E+03 -.105E+03 -.254E+03   -.549E+03 0.112E+03 0.222E+03   0.446E+02 -.440E+01 0.334E+02   0.123E-01 0.924E-02 0.150E-02
   0.378E+03 -.217E+03 -.120E+04   -.416E+03 0.218E+03 0.123E+04   0.361E+02 0.150E+01 -.379E+02   0.126E-01 0.577E-03 -.801E-03
   -.543E+03 -.231E+03 -.104E+04   0.591E+03 0.234E+03 0.107E+04   -.470E+02 -.141E+01 -.235E+02   -.120E-01 0.624E-02 0.825E-02
   0.579E+02 0.655E+03 -.979E+03   -.650E+02 -.701E+03 0.101E+04   0.692E+01 0.462E+02 -.350E+02   0.511E-02 0.189E-01 -.358E-03
   -.319E+03 -.378E+03 -.377E+03   0.363E+03 0.398E+03 0.356E+03   -.424E+02 -.170E+02 0.219E+02   -.240E-03 0.765E-02 0.554E-02
   0.388E+03 -.379E+03 -.534E+03   -.437E+03 0.399E+03 0.533E+03   0.471E+02 -.175E+02 0.122E+01   0.130E-01 0.473E-02 -.837E-02
   -.291E+00 -.461E+01 0.654E+00   -.455E-12 0.171E-12 -.580E-11   0.458E+00 0.466E+01 -.665E+00   0.894E-01 0.935E-01 -.544E-01

 POSITION                                       TOTAL-FORCE (eV/Angst)
      1.22240     -0.74431     17.39817        -0.000488     -0.000773      0.001540
      2.47871      1.43135     17.39312        -0.001946     -0.001654      0.001511
      3.73528      3.60673     17.38858        -0.002819     -0.001708      0.007362
      4.99134      5.78213     17.39090        -0.003014      0.000026      0.007413
      6.24654      7.95792     17.39694         0.001332      0.004592      0.001086
      7.50249     10.13369     17.39961         0.004830      0.003057      0.004683
      2.47866     -2.91996     17.39266        -0.003567      0.001967      0.007069
      3.73518     -0.74404     17.38636        -0.005441     -0.001342      0.006006
      4.99158      1.43174     17.37548        -0.000706     -0.002404      0.001102
      6.24793      3.60637     17.37865        -0.001654     -0.000611     -0.000942
      7.50291      5.78172     17.38284         0.000298     -0.001007      0.012209
      8.75839      7.95799     17.39308         0.004741      0.001688      0.000758
      3.73392     -5.09595     17.39055         0.004799      0.003160     -0.001600
      4.99122     -2.91986     17.38051        -0.003033     -0.000076      0.003112
      6.24740     -0.74301     17.36840        -0.002677     -0.002418      0.000388
      7.50262      1.43250     17.36291         0.001925     -0.002754      0.004437
      8.75743      3.60597     17.38308         0.004335      0.001943      0.002981
     10.01340      5.78155     17.38628         0.006077      0.002686      0.003398
      4.98950     -7.27175     17.39306         0.007322      0.000367      0.001081
      6.24630     -5.09539     17.38551         0.004192      0.000042      0.005389
      7.50279     -2.91899     17.37323        -0.001574     -0.003363      0.002234
      8.75877     -0.74264     17.36852        -0.003608     -0.004941      0.001917
     10.01334      1.43208     17.37411         0.001348      0.001236      0.002303
     11.26920      3.60594     17.38520         0.006893      0.005453      0.000561
      6.24572     -9.44749     17.39598         0.006089      0.003853      0.002215
      7.50230     -7.27163     17.39739         0.000891      0.001691      0.000091
      8.75861     -5.09549     17.39272         0.000976      0.003103      0.005266
     10.01458     -2.91944     17.38939        -0.001653     -0.000211      0.006545
     11.27041     -0.74415     17.38945         0.001132      0.001461     -0.000195
     12.52607      1.43082     17.39188         0.007920      0.005662      0.005784
      7.50239    -11.62252     17.39939         0.001301     -0.002722      0.002430
      8.75892     -9.44693     17.39825        -0.005147     -0.002632      0.001682
     10.01540     -7.27132     17.39937        -0.009773      0.000775      0.000025
     11.27117     -5.09563     17.40053        -0.005671      0.005365      0.000032
     12.52685     -2.91986     17.39913        -0.001289     -0.000253      0.009628
     13.78281     -0.74444     17.39948         0.002071      0.002005      0.002677
      1.22211      0.70610     17.39867         0.000622     -0.003230      0.000287
      2.47826      2.88174     17.39336        -0.000062     -0.002511     -0.000471
      3.73446      5.05744     17.39401        -0.001562     -0.003141     -0.004163
      4.99029      7.23309     17.39831         0.001894     -0.002377     -0.004363
      6.24622      9.40861     17.40063         0.005605      0.001209     -0.000245
      7.50248     11.58417     17.40128         0.004574     -0.000213     -0.000761
      2.47867     -1.46948     17.39322        -0.005008     -0.001550     -0.002881
      3.73458      0.70611     17.38563        -0.002017     -0.001179     -0.002950
      4.99027      2.88183     17.37787         0.004177     -0.001837     -0.003021
      6.24636      5.05762     17.38007         0.005547     -0.005365     -0.001247
      7.50233      7.23322     17.39067         0.004084     -0.004763     -0.002467
      8.75878      9.40877     17.39666        -0.002629     -0.000677     -0.002048
      3.73470     -3.64527     17.38813        -0.002213      0.002943     -0.000834
      4.99113     -1.46957     17.37984         0.000689      0.002938     -0.004776
      6.24633      0.70618     17.35979         0.005465      0.003815     -0.009721
      7.50194      2.88138     17.36613         0.003805      0.000976     -0.012069
      8.75833      5.05745     17.37777         0.001054     -0.004011     -0.003040
     10.01447      7.23290     17.39126        -0.001595     -0.000471     -0.009101
      4.99020     -5.82101     17.39126        -0.000117      0.001546     -0.008980
      6.24691     -3.64518     17.37354        -0.001666     -0.000097     -0.002909
      7.50328     -1.46896     17.36514        -0.001343      0.004174     -0.006667
      8.75848      0.70630     17.35735        -0.003782      0.007356     -0.003959
     10.01471      2.88151     17.37425        -0.007139      0.000731     -0.006946
     11.27045      5.05697     17.38904        -0.002378      0.001321     -0.004222
[...]
      7.56453     -1.01319     22.09016        -0.002864     -0.003666     -0.005674
      7.67094      0.31257     21.29641        -0.001552     -0.001182      0.004097
      7.76992      1.60087     22.13941        -0.003361     -0.000574     -0.001516
      7.57873      2.90851     21.29290         0.012593     -0.001788     -0.010786
      8.90154     -2.40917     20.67766        -0.004357      0.000018      0.003056
      6.75293     -2.36251     20.30900        -0.000225      0.004059      0.005203
      6.35482     -1.07360     22.69809        -0.006774     -0.009605     -0.000786
      8.53072     -1.04734     23.04027         0.001944     -0.004967     -0.001911
      8.76570      0.23577     20.49417         0.001386     -0.000350      0.001390
      6.57031      0.39504     20.50008        -0.002388     -0.006516     -0.000293
      6.83313      1.50794     23.13748        -0.001809      0.003289      0.001776
      8.99161      1.59453     22.75969         0.005986     -0.008180     -0.006079
      7.53762     -3.36168     22.07646        -0.000221     -0.002616     -0.004194
      8.62505      3.32463     20.76416        -0.007764     -0.007637      0.003565
      6.41250      3.34176     21.26691        -0.005243      0.000189      0.004124
    total drift:                                0.255506      0.145168     -0.065113

  FREE ENERGIE OF THE ION-ELECTRON SYSTEM (eV)
  free  energy   TOTEN  =      -819.66161989 eV

  energy  without entropy=     -819.66161989  energy(sigma->0) =     -819.66161989

 d Force = 0.1115770E-03[ 0.316E-04, 0.192E-03]  d Energy = 0.1422785E-03-0.307E-04
 d Force =-0.2840634E+00[-0.284E+00,-0.284E+00]  d Ewald  =-0.2840629E+00-0.412E-06

 Conjugate gradient step on ions:
 trial-energy change:   -0.000142  1 .order   -0.000112   -0.000192   -0.000032
  (g-gl).g = 0.418E-03      g.g   = 0.537E-03  gl.gl    = 0.139E-02
 g(Force)  = 0.537E-03   g(Stress)= 0.000E+00 ortho     =-0.869E-04
 gamma     =   0.30015
 trial     =   0.37516
 opt step  =   0.44936  (harmonic =   0.44936) maximal distance =0.00041409
 next E    =  -819.661592   (d E  =  -0.00011)

 reached required accuracy - stopping structural energy minimisation
 writing wavefunctions

 total charge

[...]

 magnetization (x)

# of ion       s       p       d       tot
    1       -0.000  -0.000   0.000  -0.000
    2       -0.000  -0.000   0.000  -0.000
    3       -0.000   0.000   0.000  -0.000
    4       -0.000  -0.000   0.000  -0.000
    5       -0.000  -0.000   0.000  -0.000
    6        0.000   0.000   0.000   0.000
    7       -0.000   0.000   0.000   0.000
    8       -0.000  -0.000   0.000  -0.000
    9        0.000  -0.000   0.000   0.000
   10       -0.000   0.000   0.000   0.000
   11       -0.000   0.000   0.000   0.000
   12        0.000   0.000   0.000   0.000
   13       -0.000   0.000   0.000   0.000
   14       -0.000   0.000   0.000   0.000
   15        0.000  -0.000   0.000  -0.000
   16        0.000  -0.000   0.000  -0.000
   17       -0.000   0.000   0.000  -0.000
   18       -0.000   0.000   0.000   0.000
   19       -0.000   0.000   0.000  -0.000
   20       -0.000   0.000   0.000   0.000
   21        0.000   0.000   0.000   0.000
   22       -0.000   0.000   0.000  -0.000
   23       -0.000   0.000   0.000  -0.000
   24       -0.000  -0.000   0.000  -0.000
   25       -0.000  -0.000   0.000  -0.000
   26       -0.000   0.000   0.000  -0.000
   27       -0.000  -0.000   0.000  -0.000
   28        0.000   0.000   0.000   0.000
   29       -0.000   0.000   0.000  -0.000
   30       -0.000   0.000   0.000  -0.000
   31       -0.000  -0.000   0.000  -0.000
   32       -0.000  -0.000   0.000  -0.000
   33       -0.000   0.000   0.000   0.000
   34        0.000  -0.000   0.000   0.000
   35       -0.000  -0.000   0.000  -0.000
   36       -0.000   0.000   0.000  -0.000
   37       -0.000   0.000   0.000   0.000
   38        0.000  -0.000   0.000  -0.000
   39        0.000  -0.000   0.000  -0.000
   40        0.000   0.000   0.000   0.000
   41        0.000   0.000   0.000   0.000
   42       -0.000  -0.000   0.000  -0.000
   43        0.000  -0.000   0.000  -0.000
   44       -0.000   0.000   0.000   0.000
   45       -0.000  -0.000   0.000  -0.000
   46       -0.000   0.000   0.000   0.000
   47        0.000   0.000   0.000   0.000
   48       -0.000  -0.000   0.000  -0.000
   49        0.000  -0.000   0.000   0.000
   50        0.000   0.000   0.000   0.000
   51       -0.000   0.000   0.000  -0.000
   52        0.000   0.000   0.000   0.000
   53        0.000   0.000   0.000   0.000
   54        0.000  -0.000   0.000  -0.000
   55        0.000  -0.000   0.000  -0.000
   56        0.000  -0.000   0.000  -0.000
   57       -0.000   0.000   0.000   0.000
   58        0.000   0.000   0.000   0.000
   59        0.000   0.000   0.000   0.000
   60       -0.000   0.000   0.000   0.000
[...]
   74        0.000   0.000   0.000   0.000
   75       -0.000   0.000   0.000   0.000
   76       -0.000  -0.000   0.000  -0.000
   77        0.000  -0.000   0.000   0.000
   78        0.000   0.000   0.000   0.000
   79       -0.000   0.000   0.000   0.000
   80        0.000   0.000   0.000   0.000
   81        0.000  -0.000   0.000  -0.000
   82       -0.000   0.000   0.000  -0.000
   83       -0.000   0.000   0.000  -0.000
   84        0.000   0.000   0.000   0.000
   85        0.000  -0.000   0.000  -0.000
   86       -0.000  -0.000   0.000  -0.000
   87       -0.000   0.000   0.000   0.000
   88       -0.000  -0.000   0.000  -0.000
tot         -0.000   0.000   0.000   0.000