 vasp.5.4.4.18Apr17-6-g9f103f2a35 (build May 01 2020 14:57:12) complex

 executed on             LinuxIFC date 2021.07.25  16:50:56

 INCAR:
 POTCAR:    PAW_PBE B 06Sep2000
 POTCAR:    PAW_PBE H 15Jun2001
 POTCAR:    PAW_PBE N 08Apr2002
 POTCAR:    PAW_PBE O 08Apr2002

 POTCAR:    PAW_PBE B 06Sep2000
   VRHFIN =B: s2p1

   TITEL  = PAW_PBE B 06Sep2000
   POMASS =   10.811; ZVAL   =    3.000    mass and valenz
   ENMAX  =  318.614; ENMIN  =  238.960 eV

 POTCAR:    PAW_PBE H 15Jun2001
   VRHFIN =H: ultrasoft test

   TITEL  = PAW_PBE H 15Jun2001
   POMASS =    1.000; ZVAL   =    1.000    mass and valenz
   ENMAX  =  250.000; ENMIN  =  200.000 eV

 POTCAR:    PAW_PBE N 08Apr2002
   VRHFIN =N: s2p3

   TITEL  = PAW_PBE N 08Apr2002
   POMASS =   14.001; ZVAL   =    5.000    mass and valenz
   ENMAX  =  400.000; ENMIN  =  300.000 eV

 POTCAR:    PAW_PBE O 08Apr2002
   VRHFIN =O: s2p4

   TITEL  = PAW_PBE O 08Apr2002
   POMASS =   16.000; ZVAL   =    6.000    mass and valenz
   ENMAX  =  400.000; ENMIN  =  300.000 eV

 Optimization of the real space projectors (new method)

 maximal supplied QI-value         = 22.11
 optimisation between [QCUT,QGAM] = [ 11.94, 23.88] = [ 39.92,159.67] Ry
 Optimized for a Real-space Cutoff    1.18 Angstroem

   l    n(q)    QCUT    max X(q) W(low)/X(q) W(high)/X(q)  e(spline)
   0      8    11.939    53.033    0.11E-03    0.34E-03    0.60E-07
   0      8    11.939    34.740    0.11E-03    0.34E-03    0.59E-07
   1      8    11.939    30.949    0.22E-03    0.20E-03    0.17E-06
   1      8    11.939    19.518    0.20E-03    0.18E-03    0.16E-06
 Optimization of the real space projectors (new method)

[...]

   l    n(q)    QCUT    max X(q) W(low)/X(q) W(high)/X(q)  e(spline)
   0     10    11.813    79.467    0.48E-04    0.30E-04    0.67E-06
   0     10    11.813    66.151    0.47E-04    0.30E-04    0.67E-06
   1     10    11.813    20.169    0.11E-03    0.17E-03    0.11E-05
   1     10    11.813    14.454    0.11E-03    0.17E-03    0.11E-05
 Optimization of the real space projectors (new method)

 maximal supplied QI-value         = 24.76
 optimisation between [QCUT,QGAM] = [ 11.88, 24.01] = [ 39.54,161.47] Ry
 Optimized for a Real-space Cutoff    1.18 Angstroem

   l    n(q)    QCUT    max X(q) W(low)/X(q) W(high)/X(q)  e(spline)
   0      8    11.883    20.381    0.86E-04    0.11E-03    0.31E-06
   0      8    11.883    15.268    0.94E-04    0.12E-03    0.33E-06
   1      8    11.883     5.964    0.19E-03    0.18E-04    0.33E-06
   1      8    11.883     5.382    0.17E-03    0.20E-04    0.29E-06
  PAW_PBE B 06Sep2000                   :
  PAW_PBE H 15Jun2001                   :
  PAW_PBE N 08Apr2002                   :
  PAW_PBE O 08Apr2002                   :

 POSCAR: B H N O
  positions in direct lattice
  velocities in cartesian coordinates

 METAGGA = SCAN     LMAXTAU =  6    LMIXTAU =  F

 ion  position               nearest neighbor table
   1  0.322  0.500  0.445-  31 1.44  24 1.45  30 1.45
   2  0.321  0.501  0.500-  32 1.44  25 1.45  31 1.45
   3  0.319  0.503  0.556-  33 1.45  26 1.45  32 1.45
   4  0.310  0.500  0.610-  40 1.37  38 1.38  33 1.45
   5  0.822  0.502  0.445-  35 1.44  27 1.45  34 1.46
   6  0.821  0.501  0.500-  36 1.44  28 1.45  35 1.45
   7  0.821  0.504  0.556-  37 1.43  29 1.46  36 1.47
   8  0.817  0.513  0.614-  45 1.47  46 1.48  39 1.48  37 1.55
   9  0.072  0.501  0.417-  41 1.37  24 1.44  34 1.45
  10  0.071  0.500  0.472-  25 1.44  24 1.44  35 1.45
  11  0.070  0.501  0.528-  26 1.43  36 1.45  25 1.45
  12  0.067  0.504  0.583-  38 1.38  37 1.42  26 1.45
  13  0.572  0.502  0.417-  42 1.37  27 1.44  30 1.45
  14  0.571  0.500  0.473-  28 1.44  27 1.45  31 1.45
  15  0.570  0.502  0.528-  29 1.43  28 1.45  32 1.45
  16  0.570  0.507  0.584-  39 1.33  29 1.46  33 1.47
  17  0.313  0.497  0.390-  43 1.36  41 1.38  30 1.45
  18  0.813  0.508  0.390-  44 1.36  42 1.38  34 1.45
  19  0.292  0.490  0.653-  40 0.97
  20  0.299  0.490  0.347-  43 0.97
  21  0.799  0.517  0.347-  44 0.97
  22  0.779  0.429  0.647-  45 0.96
  23  0.776  0.615  0.641-  46 0.96
  24  0.155  0.500  0.445-   9 1.44  10 1.44   1 1.45
  25  0.154  0.500  0.500-  10 1.44  11 1.45   2 1.45
  26  0.153  0.502  0.555-  11 1.43   3 1.45  12 1.45
  27  0.655  0.501  0.445-  13 1.44  14 1.45   5 1.45
  28  0.654  0.500  0.500-  14 1.44   6 1.45  15 1.45
  29  0.653  0.504  0.556-  15 1.43  16 1.46   7 1.46
  30  0.405  0.500  0.416-  17 1.45  13 1.45   1 1.45
  31  0.405  0.500  0.472-   1 1.44  14 1.45   2 1.45
  32  0.404  0.501  0.528-   2 1.44   3 1.45  15 1.45
  33  0.402  0.504  0.584-   4 1.45   3 1.45  16 1.47
  34  0.905  0.504  0.416-  18 1.45   9 1.45   5 1.46
  35  0.905  0.500  0.472-   5 1.44  10 1.45   6 1.45
  36  0.904  0.502  0.528-   6 1.44  11 1.45   7 1.47
  37  0.904  0.507  0.584-  12 1.42   7 1.43   8 1.55
  38  0.152  0.504  0.609-   4 1.38  12 1.38
  39  0.648  0.515  0.609-  16 1.33   8 1.48
  40  0.372  0.493  0.638-  19 0.97   4 1.37
  41  0.155  0.499  0.391-   9 1.37  17 1.38
  42  0.655  0.505  0.391-  13 1.37  18 1.38
  43  0.377  0.492  0.362-  20 0.97  17 1.36
  44  0.877  0.515  0.362-  21 0.97  18 1.36
  45  0.853  0.433  0.631-  22 0.96   8 1.47
  46  0.859  0.597  0.628-  23 0.96   8 1.48

  LATTYP: Found a simple orthorhombic cell.
 ALAT       =     8.7025000000
 B/A-ratio  =     1.7236426314
 C/A-ratio  =     5.1709278943

  Lattice vectors:

 A1 = (   0.0000000000,  -8.7025000000,   0.0000000000)
 A2 = (  15.0000000000,   0.0000000000,   0.0000000000)
 A3 = (   0.0000000000,   0.0000000000,  45.0000000000)

Analysis of symmetry for initial positions (statically):
 Subroutine PRICEL returns:
 Original cell was already a primitive cell.

 Routine SETGRP: Setting up the symmetry group for a
 simple orthorhombic supercell.

 Subroutine GETGRP returns: Found  1 space group operations
 (whereof  1 operations were pure point group operations)
 out of a pool of  8 trial point group operations.

The static configuration has the point symmetry C_1 .

Analysis of symmetry for dynamics (positions and initial velocities):
 Subroutine PRICEL returns:
 Original cell was already a primitive cell.

[...]

The dynamic configuration has the point symmetry C_1 .

Analysis of constrained symmetry for selective dynamics:
 Subroutine PRICEL returns:
 Original cell was already a primitive cell.

[...]

The constrained configuration has the point symmetry C_1 .

Analysis of structural, dynamic, and magnetic symmetry:
 Subroutine PRICEL returns:
 Original cell was already a primitive cell.

 Routine SETGRP: Setting up the symmetry group for a
 simple orthorhombic supercell.

 Subroutine GETGRP returns: Found  1 space group operations
 (whereof  1 operations were pure point group operations)
 out of a pool of  8 trial point group operations.

The magnetic configuration has the point symmetry C_1 .

 Subroutine INISYM returns: Found  1 space group operations
 (whereof  1 operations are pure point group operations),
 and found     1 'primitive' translations

 KPOINTS: K-Point Grid

Automatic generation of k-mesh.
Space group operators:
 irot       det(A)        alpha          n_x          n_y          n_z        tau_x        tau_y        tau_z
    1     1.000000     0.000001     1.000000     0.000000     0.000000     0.000000     0.000000     0.000000

 Subroutine IBZKPT returns following result:

 Found      8 irreducible k-points:

 Following reciprocal coordinates:
            Coordinates               Weight
  0.125000  0.125000  0.000000      2.000000
  0.375000  0.125000  0.000000      2.000000
 -0.375000  0.125000  0.000000      2.000000
 -0.125000  0.125000  0.000000      2.000000
  0.125000  0.375000  0.000000      2.000000
  0.375000  0.375000  0.000000      2.000000
 -0.375000  0.375000  0.000000      2.000000
 -0.125000  0.375000  0.000000      2.000000

 Following cartesian coordinates:
            Coordinates               Weight
  0.008333 -0.014364  0.000000      2.000000
  0.008333 -0.043091  0.000000      2.000000
  0.008333  0.043091  0.000000      2.000000
  0.008333  0.014364  0.000000      2.000000
  0.025000 -0.014364  0.000000      2.000000
  0.025000 -0.043091  0.000000      2.000000
  0.025000  0.043091  0.000000      2.000000
  0.025000  0.014364  0.000000      2.000000

 SYSTEM =  SiC
 POSCAR =  B H N O

 Startparameter for this run:
   NWRITE =      2    write-flag & timer
   PREC   = accura    normal or accurate (medium, high low for compatibility)
   ISTART =      1    job   : 0-new  1-cont  2-samecut
   ICHARG =      0    charge: 1-file 2-atom 10-const
   ISPIN  =      2    spin polarized calculation?
   LNONCOLLINEAR =      F non collinear calculations
   LSORBIT =      F    spin-orbit coupling
   INIWAV =      1    electr: 0-lowe 1-rand  2-diag
   LASPH  =      T    aspherical Exc in radial PAW
   METAGGA=      F    non-selfconsistent MetaGGA calc.

 Electronic Relaxation 1
   ENCUT  =  550.0 eV  40.42 Ry    6.36 a.u.  16.64 28.68 86.05*2*pi/ulx,y,z
   ENINI  =  550.0     initial cutoff
   ENAUG  =  627.1 eV  augmentation charge cutoff
   NELM   =    100;   NELMIN=  2; NELMDL=  0     # of ELM steps
   EDIFF  = 0.1E-04   stopping-criterion for ELM
   LREAL  =      T    real-space projection
   NLSPLINE    = F    spline interpolate recip. space projectors
   LCOMPAT=      F    compatible to vasp.4.4
   GGA_COMPAT  = T    GGA compatible to vasp.4.4-vasp.4.6
   LMAXPAW     = -100 max onsite density
   LMAXMIX     =    2 max onsite mixed and CHGCAR
   VOSKOWN=      0    Vosko Wilk Nusair interpolation
   ROPT   =   -0.00025  -0.00025  -0.00025  -0.00025
 Ionic relaxation
   EDIFFG = -.2E-01   stopping-criterion for IOM
   NSW    =    500    number of steps for IOM
   NBLOCK =      1;   KBLOCK =    500    inner block; outer block
   IBRION =      2    ionic relax: 0-MD 1-quasi-New 2-CG
   NFREE  =      1    steps in history (QN), initial steepest desc. (CG)
   ISIF   =      2    stress and relaxation
   IWAVPR =     11    prediction:  0-non 1-charg 2-wave 3-comb
   ISYM   =      2    0-nonsym 1-usesym 2-fastsym
   LCORR  =      T    Harris-Foulkes like correction to forces

   POTIM  = 0.5000    time-step for ionic-motion
   TEIN   =    0.0    initial temperature
   TEBEG  =    0.0;   TEEND  =   0.0 temperature during run
   SMASS  =  -3.00    Nose mass-parameter (am)
   estimated Nose-frequenzy (Omega)   =  0.10E-29 period in steps =****** mass=  -0.173E-26a.u.
   SCALEE = 1.0000    scale energy and forces
   NPACO  =    256;   APACO  = 16.0  distance and # of slots for P.C.
   PSTRESS=    0.0 pullay stress

  Mass of Ions in am
   POMASS =  10.81  1.00 14.00 16.00
  Ionic Valenz
   ZVAL   =   3.00  1.00  5.00  6.00
  Atomic Wigner-Seitz radii
  virtual crystal weights
   VCA    =   1.00  1.00  1.00  1.00
   NELECT =     184.0000    total number of electrons
   NUPDOWN=      -1.0000    fix difference up-down

 DOS related values:
   EMIN   =  10.00;   EMAX   =-10.00  energy-range for DOS
   EFERMI =   0.00
   ISMEAR =     0;   SIGMA  =   0.05  broadening in eV -4-tet -1-fermi 0-gaus

 Electronic relaxation 2 (details)
   IALGO  =     68    algorithm
   LDIAG  =      T    sub-space diagonalisation (order eigenvalues)
[...]
     27     -14.6724      1.00000
     28     -14.3891      1.00000
     29     -14.2731      1.00000
     30     -14.1568      1.00000
     31     -13.9432      1.00000
     32     -13.8128      1.00000
     33     -13.7315      1.00000
     34     -13.4446      1.00000
     35     -13.2886      1.00000
     36     -13.1078      1.00000
     37     -12.8585      1.00000
     38     -12.5025      1.00000
     39     -12.4492      1.00000
     40     -12.1240      1.00000
     41     -12.0426      1.00000
     42     -11.8861      1.00000
     43     -11.6764      1.00000
     44     -11.4461      1.00000
     45     -11.4073      1.00000
     46     -11.2626      1.00000
     47     -11.0500      1.00000
     48     -10.8340      1.00000
     49     -10.6929      1.00000
     50     -10.6750      1.00000
     51     -10.5939      1.00000
     52     -10.4824      1.00000
     53     -10.3426      1.00000
     54     -10.2826      1.00000
     55     -10.1688      1.00000
     56     -10.1458      1.00000
     57     -10.0066      1.00000
     58      -9.8409      1.00000
     59      -9.6746      1.00000
     60      -9.6463      1.00000
[...]
    126       1.4052      0.00000
    127       1.4296      0.00000
    128       1.5412      0.00000
    129       1.5472      0.00000
    130       1.5600      0.00000
    131       1.6060      0.00000
    132       1.6083      0.00000
    133       1.6412      0.00000
    134       1.6516      0.00000
    135       1.6695      0.00000
    136       1.6792      0.00000
    137       1.7054      0.00000
    138       1.7384      0.00000
    139       1.7541      0.00000
    140       1.7899      0.00000

[...]

 soft charge-density along one line, spin component           2
         0         1         2         3         4         5         6         7         8         9
 total charge-density along one line

------------------------ aborting loop because EDIFF is reached ----------------------------------------

[...]

  FORCE on cell =-STRESS in cart. coord.  units (eV):
  Direction    XX          YY          ZZ          XY          YZ          ZX
  Alpha Z    29.13052    29.13052    29.13052
  Ewald   19497.81241 61956.57196-25244.37018     7.51169    36.00776   166.28821
  Hartree 25932.47003 62970.38907-24437.90076    -1.99109     7.08993   148.47025
  E(xc)    -798.00991  -793.37033  -793.67476    -0.08481    -0.36434    -0.01779
  Local  -47771.76850************ 47681.07944    -1.77847   -30.26644  -312.40797
  n-local  -446.90269  -454.09305  -453.48177    -0.01342     0.32573    -0.02873
  augment    87.67155    79.89360    79.14172    -0.24931    -1.09327    -0.09951
  Kinetic  3468.77771  3144.24869  3141.07922    -3.30986   -12.09192    -2.14610
  Fock        0.00000     0.00000     0.00000     0.00000     0.00000     0.00000
  Total      -0.81888    -8.37649     1.00343     0.08473    -0.39257     0.05836
  in kB      -0.22335    -2.28468     0.27368     0.02311    -0.10707     0.01592

 VOLUME and BASIS-vectors are now :
  energy-cutoff  :      550.00
  volume of cell :     5874.19
      direct lattice vectors                 reciprocal lattice vectors
     0.000000000 -8.702500000  0.000000000     0.000000000 -0.114909509  0.000000000
    15.000000000  0.000000000  0.000000000     0.066666667  0.000000000  0.000000000
     0.000000000  0.000000000 45.000000000     0.000000000  0.000000000  0.022222222

  length of vectors
     8.702500000 15.000000000 45.000000000     0.114909509  0.066666667  0.022222222

 FORCES acting on ions
    electron-ion (+dipol)            ewald-force                    non-local-force                 convergence-correction
   0.205E+01 0.151E+01 0.122E+03   -.204E+01 -.161E+01 -.121E+03   -.297E-02 0.944E-01 -.206E+00   0.810E-03 -.289E-04 -.114E-03
   0.302E+01 0.427E-01 0.149E+02   -.299E+01 -.660E-01 -.131E+02   -.176E-01 0.427E-01 -.201E+00   -.355E-03 -.533E-03 -.137E-02
   0.139E+01 0.341E+01 -.940E+02   -.134E+01 -.344E+01 0.955E+02   -.120E-01 0.103E-01 -.150E+00   -.108E-02 0.672E-03 0.325E-03
   0.376E+01 0.217E+02 -.234E+03   -.366E+01 -.227E+02 0.233E+03   -.426E-02 0.107E+01 0.122E+01   -.167E-02 -.192E-03 -.441E-03
   0.147E+01 0.130E+01 0.122E+03   -.147E+01 -.140E+01 -.121E+03   -.101E-01 0.956E-01 -.226E+00   0.167E-02 0.369E-04 -.829E-03
   0.424E+01 -.108E+01 0.173E+02   -.420E+01 0.100E+01 -.152E+02   -.256E-01 0.619E-01 -.318E+00   0.645E-03 0.543E-03 -.110E-02
   0.150E+01 -.309E+01 -.796E+02   -.140E+01 0.270E+01 0.822E+02   -.624E-01 0.280E+00 -.808E+00   0.690E-03 -.254E-03 0.807E-03
   -.965E+01 0.111E+02 -.239E+03   0.950E+01 -.125E+02 0.239E+03   0.676E-01 0.856E+00 0.264E+00   0.297E-04 -.235E-02 0.837E-03
   -.496E+00 -.215E+02 0.175E+03   0.569E+00 0.223E+02 -.172E+03   -.452E-01 -.643E+00 -.157E+01   0.632E-03 0.155E-03 0.139E-03
   0.259E+01 -.196E+01 0.674E+02   -.256E+01 0.192E+01 -.657E+02   -.228E-01 0.965E-01 -.187E+00   0.822E-03 -.642E-03 -.166E-02
   0.342E+01 0.558E+00 -.335E+02   -.335E+01 -.349E+00 0.355E+02   -.296E-01 -.347E-01 -.251E+00   0.603E-04 -.764E-03 -.317E-05
   0.382E+00 0.199E+00 -.143E+03   -.241E+00 0.223E+01 0.143E+03   -.430E-01 -.172E+01 0.139E+01   -.141E-02 -.162E-03 0.186E-02
   0.156E+01 -.215E+02 0.174E+03   -.166E+01 0.223E+02 -.172E+03   0.652E-01 -.647E+00 -.157E+01   0.791E-03 -.736E-03 0.558E-04
   0.374E+01 -.235E+01 0.667E+02   -.374E+01 0.221E+01 -.650E+02   -.112E-01 0.108E+00 -.212E+00   0.846E-03 0.366E-03 -.674E-03
   0.385E+01 -.459E+01 -.353E+02   -.382E+01 0.415E+01 0.374E+02   -.154E-01 0.218E+00 -.401E+00   -.342E-03 0.791E-03 -.182E-02
   -.196E+01 -.370E+02 -.137E+03   0.183E+01 0.365E+02 0.138E+03   0.111E+00 0.233E-01 0.656E+00   0.968E-04 0.757E-04 0.120E-02
   0.459E+01 0.174E+02 0.246E+03   -.456E+01 -.189E+02 -.244E+03   -.382E-02 0.115E+01 -.949E+00   -.500E-03 0.634E-03 0.127E-02
   -.612E+01 0.175E+02 0.246E+03   0.606E+01 -.189E+02 -.244E+03   0.252E-01 0.115E+01 -.952E+00   0.710E-03 0.434E-03 0.116E-02
   0.975E+01 -.542E+02 -.178E+03   -.100E+02 0.597E+02 0.182E+03   0.381E+00 -.615E+01 -.627E+01   -.114E-02 -.172E-04 -.371E-03
   0.717E+01 -.530E+02 0.178E+03   -.738E+01 0.581E+02 -.183E+03   0.276E+00 -.597E+01 0.650E+01   -.194E-03 0.104E-02 -.119E-03
   -.923E+01 -.530E+02 0.178E+03   0.952E+01 0.582E+02 -.183E+03   -.369E+00 -.598E+01 0.650E+01   -.358E-03 0.120E-02 0.154E-03
   0.475E+02 -.537E+02 -.175E+03   -.481E+02 0.588E+02 0.181E+03   0.683E+00 -.562E+01 -.646E+01   0.591E-03 -.789E-03 0.601E-03
   -.767E+02 -.610E+02 -.155E+03   0.788E+02 0.667E+02 0.160E+03   -.247E+01 -.636E+01 -.525E+01   0.194E-03 -.427E-03 -.493E-03
   0.334E+01 0.719E+00 0.196E+03   -.340E+01 -.969E+00 -.193E+03   0.889E-01 0.307E+00 -.487E+00   0.190E-02 -.148E-03 0.332E-02
   0.634E+01 0.293E+01 0.233E+02   -.646E+01 -.301E+01 -.202E+02   0.136E+00 0.238E+00 -.498E+00   0.357E-02 -.428E-02 -.586E-02
   0.542E+01 0.970E+01 -.149E+03   -.549E+01 -.910E+01 0.152E+03   0.180E+00 0.117E-01 -.587E+00   -.526E-02 0.268E-03 0.482E-03
   0.477E+01 0.160E+00 0.195E+03   -.492E+01 -.430E+00 -.192E+03   0.110E+00 0.273E+00 -.522E+00   0.318E-02 -.372E-02 0.315E-02
   0.837E+01 -.543E+00 0.232E+02   -.855E+01 0.227E+00 -.198E+02   0.176E+00 0.174E+00 -.582E+00   0.202E-02 0.119E-02 -.283E-02
   0.419E+01 -.899E+01 -.144E+03   -.433E+01 0.794E+01 0.147E+03   0.144E+00 0.488E+00 -.870E+00   0.343E-02 -.175E-02 0.955E-03
   0.264E+01 0.110E+02 0.314E+03   -.255E+01 -.119E+02 -.313E+03   -.101E+00 0.703E+00 0.199E+00   0.193E-02 0.263E-02 0.531E-02
   0.499E+01 0.522E+00 0.110E+03   -.504E+01 -.656E+00 -.107E+03   0.458E-01 0.106E+00 -.367E+00   0.361E-02 -.267E-02 -.531E-03
   0.489E+01 0.651E+00 -.661E+02   -.492E+01 -.108E+01 0.691E+02   0.560E-01 0.303E+00 -.375E+00   -.901E-02 -.312E-02 -.655E-02
   -.132E+01 0.726E+01 -.276E+03   0.159E+01 -.985E+01 0.278E+03   -.220E+00 0.208E+01 -.168E+00   0.468E-02 0.259E-02 0.402E-02
   -.301E+01 0.111E+02 0.314E+03   0.301E+01 -.120E+02 -.313E+03   0.140E-01 0.699E+00 0.160E+00   0.108E-01 0.122E-02 0.301E-02
   0.675E+01 0.197E+00 0.111E+03   -.695E+01 -.198E+00 -.108E+03   0.193E+00 0.343E-01 -.513E+00   0.705E-03 -.409E-02 -.458E-02
   0.754E+01 -.609E+00 -.595E+02   -.769E+01 0.118E+01 0.637E+02   0.190E+00 -.444E+00 -.118E+01   0.278E-02 0.308E-03 0.457E-03
   -.376E+00 0.140E+02 -.243E+03   0.622E+00 -.110E+02 0.250E+03   -.188E+00 -.291E+01 -.500E+01   -.409E-03 0.170E-02 0.517E-02
   -.151E+01 -.288E+02 -.574E+03   0.252E+01 0.492E+02 0.604E+03   -.681E+00 -.179E+02 -.287E+02   -.134E-01 0.800E-02 -.623E-02
   -.486E+02 -.106E+03 -.556E+03   0.517E+02 0.113E+03 0.587E+03   -.324E+01 -.779E+01 -.299E+02   -.111E-01 0.626E-02 0.779E-02
   0.446E+02 0.713E+02 -.728E+03   -.458E+02 -.117E+03 0.731E+03   0.142E+01 0.427E+02 -.557E+01   -.164E-01 0.113E-02 -.974E-02
   0.883E+01 -.599E+02 0.604E+03   -.879E+01 0.779E+02 -.633E+03   0.139E+00 -.170E+02 0.298E+02   -.110E-01 0.910E-02 0.653E-02
   -.124E+02 -.599E+02 0.604E+03   0.129E+02 0.779E+02 -.632E+03   -.622E+00 -.170E+02 0.298E+02   0.123E-02 0.128E-02 0.330E-02
   0.330E+02 0.800E+02 0.734E+03   -.340E+02 -.126E+03 -.736E+03   0.103E+01 0.425E+02 0.556E+01   0.208E-03 0.801E-02 0.697E-02
   -.414E+02 0.800E+02 0.733E+03   0.427E+02 -.126E+03 -.735E+03   -.129E+01 0.425E+02 0.554E+01   -.704E-02 0.104E-01 0.120E-01
   0.353E+03 0.643E+02 -.631E+03   -.372E+03 -.977E+02 0.614E+03   0.186E+02 0.310E+02 0.148E+02   0.638E-02 -.170E-01 0.104E-01
   -.390E+03 0.804E+02 -.593E+03   0.403E+03 -.119E+03 0.580E+03   -.117E+02 0.351E+02 0.120E+02   0.706E-02 -.294E-02 -.661E-02
   -.291E+01 -.108E+03 -.132E+02   -.568E-13 0.995E-13 -.227E-12   0.289E+01 0.108E+03 0.132E+02   -.185E-01 0.134E-01 0.293E-01

 POSITION                                       TOTAL-FORCE (eV/Angst)
      7.50126     -2.80042     20.00350        -0.000826     -0.003750     -0.001801
      7.50890     -2.78994     22.50637         0.002128      0.013576     -0.000561
      7.53819     -2.77869     25.00682         0.000870     -0.008838      0.000094
      7.50692     -2.69511     27.46724         0.003424      0.009817      0.007727
      7.52303     -7.15130     20.00453        -0.002505     -0.005731      0.001820
      7.50907     -7.14076     22.50948        -0.000821      0.002394      0.007289
      7.56250     -7.14242     25.03011        -0.001573      0.007139      0.000644
      7.69512     -7.10979     27.61258        -0.000532     -0.001047     -0.002840
      7.51899     -0.62452     18.76827        -0.001138     -0.006362     -0.001206
      7.50654     -0.61806     21.25932        -0.000955      0.002063      0.001900
      7.52056     -0.60541     23.74792         0.000535     -0.004665      0.001782
      7.56657     -0.58044     26.23124         0.001914     -0.001069     -0.005885
      7.52644     -4.97582     18.77062        -0.001076     -0.006359      0.001114
      7.50401     -4.97004     21.26424        -0.000472     -0.002181     -0.003601
      7.52458     -4.96447     23.76219         0.002737     -0.000992      0.001561
      7.61156     -4.96409     26.27008        -0.000330     -0.000336     -0.000453
      7.45550     -2.72828     17.53078         0.000069      0.007694     -0.007996
      7.61609     -7.07875     17.53324        -0.001148      0.000923     -0.008728
      7.35052     -2.53865     29.38906         0.005841     -0.002078     -0.013285
      7.34597     -2.60593     15.59851         0.003265     -0.004044     -0.004573
      7.76065     -6.95537     15.60328         0.000776     -0.001801     -0.007237
      6.44011     -6.78225     29.13372         0.000706     -0.005331      0.005762
      9.21834     -6.75725     28.86433        -0.006847     -0.005186      0.006570
      7.50593     -1.34715     20.01280        -0.002349     -0.003110      0.001644
      7.50682     -1.34127     22.50053        -0.001436      0.008540     -0.000678
      7.53472     -1.33037     24.98633         0.002495     -0.005897     -0.003686
      7.51373     -5.69799     20.01594        -0.002713     -0.007114      0.000702
      7.50561     -5.69149     22.50691        -0.001525      0.004199      0.002765
      7.55854     -5.68202     25.00013        -0.001716      0.006232      0.000103
      7.49731     -3.52545     18.74143        -0.000781     -0.000533     -0.003109
      7.50259     -3.52072     21.25298        -0.001575      0.001010     -0.002556
      7.52141     -3.51141     23.75431         0.001612     -0.001027     -0.004449
      7.55786     -3.49536     26.26376         0.000598      0.003093      0.004484
      7.55255     -7.87651     18.74218        -0.002883     -0.004348     -0.003675
      7.50590     -7.87154     21.25316        -0.002315      0.002750      0.002108
      7.52232     -7.86221     23.75392        -0.001024     -0.000775      0.001732
      7.60037     -7.86299     26.25944         0.000544      0.001558     -0.002160
      7.55496     -1.32237     27.39845         0.003818     -0.000757     -0.002484
      7.72285     -5.63900     27.41558         0.001885      0.001455     -0.001995
      7.39005     -3.23483     28.71988         0.004888      0.006846      0.006901
      7.48621     -1.35009     17.60451         0.003267      0.000064     -0.003565
      7.58068     -5.70115     17.60776        -0.001321      0.004541     -0.004647
      7.37431     -3.28086     16.28979         0.002512     -0.004120      0.014108
      7.72232     -7.63036     16.29377        -0.000426     -0.007345      0.012377
      6.49755     -7.42035     28.41404        -0.002419      0.006980     -0.001568
      8.95973     -7.47776     28.27967        -0.003176      0.003921      0.009550
    total drift:                               -0.036723      0.089627     -0.021817

  FREE ENERGIE OF THE ION-ELECTRON SYSTEM (eV)
  free  energy   TOTEN  =      -415.06736457 eV

  energy  without entropy=     -415.06736457  energy(sigma->0) =     -415.06736457

 d Force = 0.7148058E-04[ 0.307E-04, 0.112E-03]  d Energy = 0.7426870E-04-0.279E-05
 d Force = 0.8813870E+00[ 0.882E+00, 0.881E+00]  d Ewald  = 0.8813870E+00 0.113E-08

 Conjugate gradient step on ions:
 trial-energy change:   -0.000074  1 .order   -0.000071   -0.000112   -0.000031
  (g-gl).g = 0.217E-03      g.g   = 0.231E-03  gl.gl    = 0.253E-03
 g(Force)  = 0.231E-03   g(Stress)= 0.000E+00 ortho     =-0.146E-04
 gamma     =   0.85909
 trial     =   0.51426
 opt step  =   0.70744  (harmonic =   0.70744) maximal distance =0.00132626
 next E    =  -415.067368   (d E  =  -0.00008)

 reached required accuracy - stopping structural energy minimisation
 writing wavefunctions

 total charge

[...]

 magnetization (x)

# of ion       s       p       d       tot
    1       -0.000   0.000   0.000   0.000
    2        0.000  -0.000   0.000  -0.000
    3       -0.000   0.000   0.000  -0.000
    4       -0.000   0.000   0.000   0.000
    5        0.000  -0.000   0.000  -0.000
    6        0.000   0.000   0.000   0.000
    7        0.000   0.000   0.000   0.000
    8        0.000   0.000   0.000   0.000
    9       -0.000   0.000   0.000   0.000
   10        0.000   0.000   0.000   0.000
   11       -0.000  -0.000   0.000  -0.000
   12        0.000   0.000   0.000   0.000
   13       -0.000   0.000   0.000  -0.000
   14        0.000  -0.000   0.000  -0.000
   15       -0.000   0.000   0.000   0.000
   16       -0.000  -0.000   0.000  -0.000
   17        0.000  -0.000   0.000  -0.000
   18        0.000   0.000   0.000   0.000
   19        0.000  -0.000   0.000  -0.000
   20       -0.000   0.000   0.000   0.000
   21       -0.000   0.000   0.000   0.000
   22        0.000  -0.000   0.000   0.000
   23        0.000  -0.000   0.000  -0.000
   24        0.000  -0.000   0.000  -0.000
   25       -0.000   0.000   0.000   0.000
   26        0.000   0.000   0.000   0.000
   27       -0.000   0.000   0.000   0.000
   28       -0.000   0.000   0.000   0.000
   29        0.000  -0.000   0.000  -0.000
   30        0.000   0.000   0.000   0.000
   31       -0.000   0.000   0.000   0.000
   32        0.000   0.000   0.000   0.000
   33       -0.000  -0.000   0.000  -0.000
   34       -0.000   0.000   0.000   0.000
   35        0.000  -0.000   0.000   0.000
   36       -0.000   0.000   0.000   0.000
   37       -0.000  -0.000   0.000  -0.000
   38        0.000   0.000   0.000   0.000
   39       -0.000   0.000   0.000   0.000
   40        0.000   0.000   0.000   0.000
   41       -0.000  -0.000   0.000  -0.000
   42        0.000   0.000   0.000   0.000
   43       -0.000   0.000   0.000   0.000
   44        0.000   0.000   0.000   0.000
   45        0.000   0.000   0.000   0.000
   46        0.000  -0.000   0.000  -0.000
tot          0.000   0.000   0.000   0.000