 vasp.5.4.4.18Apr17-6-g9f103f2a35 (build May 01 2020 14:57:12) complex

 executed on             LinuxIFC date 2020.08.06  22:07:24

 INCAR:
 POTCAR:    PAW_PBE B 06Sep2000
 POTCAR:    PAW_PBE N 08Apr2002

 POTCAR:    PAW_PBE B 06Sep2000
   VRHFIN =B: s2p1

   TITEL  = PAW_PBE B 06Sep2000
   POMASS =   10.811; ZVAL   =    3.000    mass and valenz
   ENMAX  =  318.614; ENMIN  =  238.960 eV

 POTCAR:    PAW_PBE N 08Apr2002
   VRHFIN =N: s2p3

   TITEL  = PAW_PBE N 08Apr2002
   POMASS =   14.001; ZVAL   =    5.000    mass and valenz
   ENMAX  =  400.000; ENMIN  =  300.000 eV

 Optimization of the real space projectors (new method)

 maximal supplied QI-value         = 22.11
 optimisation between [QCUT,QGAM] = [ 11.94, 23.88] = [ 39.92,159.67] Ry
 Optimized for a Real-space Cutoff    1.18 Angstroem

   l    n(q)    QCUT    max X(q) W(low)/X(q) W(high)/X(q)  e(spline)
   0      8    11.939    53.033    0.11E-03    0.34E-03    0.60E-07
   0      8    11.939    34.740    0.11E-03    0.34E-03    0.59E-07
   1      8    11.939    30.949    0.22E-03    0.20E-03    0.17E-06
   1      8    11.939    19.518    0.20E-03    0.18E-03    0.16E-06
 Optimization of the real space projectors (new method)

 maximal supplied QI-value         = 25.13
 optimisation between [QCUT,QGAM] = [ 11.81, 23.88] = [ 39.08,159.64] Ry
 Optimized for a Real-space Cutoff    1.41 Angstroem

   l    n(q)    QCUT    max X(q) W(low)/X(q) W(high)/X(q)  e(spline)
   0     10    11.813    79.467    0.48E-04    0.30E-04    0.67E-06
   0     10    11.813    66.151    0.47E-04    0.30E-04    0.67E-06
   1     10    11.813    20.169    0.11E-03    0.17E-03    0.11E-05
   1     10    11.813    14.454    0.11E-03    0.17E-03    0.11E-05
  PAW_PBE B 06Sep2000                   :
  PAW_PBE N 08Apr2002                   :

 POSCAR: B N
  positions in direct lattice
  velocities in cartesian coordinates
 exchange correlation table for  LEXCH =        8
   RHO(1)=    0.500       N(1)  =     2000
   RHO(2)=  100.500       N(2)  =     4000

 ion  position               nearest neighbor table
   1  0.667  0.333  0.500-   2 1.45   2 1.45   2 1.45
   2  0.333  0.667  0.500-   1 1.45   1 1.45   1 1.45

  Warning from LATTYP: Got some problem with cell dimensions!
  Tried to take original basis but could not verify dimensions!
  LATTYP: Found a hexagonal cell.
 ALAT       =     2.5121833522
 C/A-ratio  =    13.9777474261

  Lattice vectors:

 A1 = (   2.5121833522,   0.0000000000,   0.0000000000)
 A2 = (  -1.2560916761,  -2.1756243432,   0.0000000000)
 A3 = (   0.0000000000,   0.0000000000, -35.1146643856)

Analysis of symmetry for initial positions (statically):
 Subroutine PRICEL returns:
 Original cell was already a primitive cell.

 Routine SETGRP: Setting up the symmetry group for a
 hexagonal supercell.

 Subroutine GETGRP returns: Found 12 space group operations
 (whereof 12 operations were pure point group operations)
 out of a pool of 24 trial point group operations.

The static configuration has the point symmetry D_3h.

Analysis of symmetry for dynamics (positions and initial velocities):
 Subroutine PRICEL returns:
 Original cell was already a primitive cell.

[...]

The dynamic configuration has the point symmetry D_3h.

Analysis of constrained symmetry for selective dynamics:
 Subroutine PRICEL returns:
 Original cell was already a primitive cell.

[...]

The constrained configuration has the point symmetry D_3h.

Analysis of structural, dynamic, and magnetic symmetry:
 Subroutine PRICEL returns:
 Original cell was already a primitive cell.

 Routine SETGRP: Setting up the symmetry group for a
 hexagonal supercell.

 Subroutine GETGRP returns: Found 12 space group operations
 (whereof 12 operations were pure point group operations)
 out of a pool of 24 trial point group operations.

The magnetic configuration has the point symmetry D_3h.

 Subroutine INISYM returns: Found 12 space group operations
 (whereof 12 operations are pure point group operations),
 and found     1 'primitive' translations

 KPOINTS: K-Point Grid

Automatic generation of k-mesh.
Space group operators:
 irot       det(A)        alpha          n_x          n_y          n_z        tau_x        tau_y        tau_z
    1     1.000000     0.000000     1.000000     0.000000     0.000000     0.000000     0.000000     0.000000
    2    -1.000000    60.000000     0.000000     0.000000     1.000000     0.000000     0.000000     0.000000
    3     1.000000   120.000000     0.000000     0.000000     1.000000     0.000000     0.000000     0.000000
    4    -1.000000   180.000000     0.000000     0.000000     1.000000     0.000000     0.000000     0.000000
    5     1.000000   120.000000     0.000000     0.000000    -1.000000     0.000000     0.000000     0.000000
    6    -1.000000    60.000000     0.000000     0.000000    -1.000000     0.000000     0.000000     0.000000
    7    -1.000000   180.000000     1.000000     0.000000     0.000000     0.000000     0.000000     0.000000
    8     1.000000   180.000000     0.866026     0.499998     0.000000     0.000000     0.000000     0.000000
    9    -1.000000   180.000000    -0.500002    -0.866024     0.000000     0.000000     0.000000     0.000000
   10     1.000000   180.000000     0.000000     1.000000     0.000000     0.000000     0.000000     0.000000
   11    -1.000000   180.000000     0.500002    -0.866024     0.000000     0.000000     0.000000     0.000000
   12     1.000000   180.000000     0.866026    -0.499998     0.000000     0.000000     0.000000     0.000000

 Subroutine IBZKPT returns following result:

 Found     72 irreducible k-points:

 Following reciprocal coordinates:
            Coordinates               Weight
  0.031250  0.031250  0.000000     48.000000
  0.093750  0.031250  0.000000     96.000000
  0.156250  0.031250  0.000000     96.000000
  0.218750  0.031250  0.000000     96.000000
  0.281250  0.031250  0.000000     96.000000
  0.343750  0.031250  0.000000     96.000000
  0.406250  0.031250  0.000000     96.000000
  0.468750  0.031250  0.000000     96.000000
 -0.468750  0.031250  0.000000     96.000000
 -0.406250  0.031250  0.000000     96.000000
 -0.343750  0.031250  0.000000     96.000000
 -0.281250  0.031250  0.000000     96.000000
 -0.218750  0.031250  0.000000     96.000000
 -0.156250  0.031250  0.000000     96.000000
 -0.093750  0.031250  0.000000     96.000000
 -0.031250  0.031250  0.000000     48.000000
  0.093750  0.093750  0.000000     48.000000
  0.156250  0.093750  0.000000     96.000000
  0.218750  0.093750  0.000000     96.000000
  0.281250  0.093750  0.000000     96.000000
  0.343750  0.093750  0.000000     96.000000
  0.406250  0.093750  0.000000     96.000000
  0.468750  0.093750  0.000000     96.000000
 -0.468750  0.093750  0.000000     96.000000
 -0.406250  0.093750  0.000000     96.000000
 -0.343750  0.093750  0.000000     96.000000
 -0.281250  0.093750  0.000000     96.000000
 -0.218750  0.093750  0.000000     96.000000
 -0.156250  0.093750  0.000000     96.000000
 -0.093750  0.093750  0.000000     48.000000
  0.156250  0.156250  0.000000     48.000000
  0.218750  0.156250  0.000000     96.000000
  0.281250  0.156250  0.000000     96.000000
  0.343750  0.156250  0.000000     96.000000
  0.406250  0.156250  0.000000     96.000000
  0.468750  0.156250  0.000000     96.000000
 -0.468750  0.156250  0.000000     96.000000
 -0.406250  0.156250  0.000000     96.000000
 -0.343750  0.156250  0.000000     96.000000
 -0.281250  0.156250  0.000000     96.000000
 -0.218750  0.156250  0.000000     96.000000
 -0.156250  0.156250  0.000000     48.000000
  0.218750  0.218750  0.000000     48.000000
  0.281250  0.218750  0.000000     96.000000
  0.343750  0.218750  0.000000     96.000000
  0.406250  0.218750  0.000000     96.000000
  0.468750  0.218750  0.000000     96.000000
 -0.468750  0.218750  0.000000     96.000000
 -0.406250  0.218750  0.000000     96.000000
 -0.343750  0.218750  0.000000     96.000000
 -0.281250  0.218750  0.000000     96.000000
 -0.218750  0.218750  0.000000     48.000000
  0.281250  0.281250  0.000000     48.000000
  0.343750  0.281250  0.000000     96.000000
  0.406250  0.281250  0.000000     96.000000
  0.468750  0.281250  0.000000     96.000000
 -0.468750  0.281250  0.000000     96.000000
 -0.406250  0.281250  0.000000     96.000000
 -0.343750  0.281250  0.000000     96.000000
 -0.281250  0.281250  0.000000     48.000000
  0.343750  0.343750  0.000000     48.000000
  0.406250  0.343750  0.000000     96.000000
  0.468750  0.343750  0.000000     96.000000
 -0.468750  0.343750  0.000000     96.000000
 -0.406250  0.343750  0.000000     96.000000
 -0.343750  0.343750  0.000000     48.000000
  0.406250  0.406250  0.000000     48.000000
  0.468750  0.406250  0.000000     96.000000
 -0.468750  0.406250  0.000000     96.000000
 -0.406250  0.406250  0.000000     48.000000
  0.468750  0.468750  0.000000     48.000000
 -0.468750  0.468750  0.000000     48.000000

 Following cartesian coordinates:
            Coordinates               Weight
  0.024879  0.000000  0.000000     48.000000
  0.049758 -0.014364  0.000000     96.000000
  0.074636 -0.028727  0.000000     96.000000
  0.099515 -0.043091  0.000000     96.000000
  0.124394 -0.057455  0.000000     96.000000
  0.149273 -0.071818  0.000000     96.000000
  0.174151 -0.086182  0.000000     96.000000
  0.199030 -0.100546  0.000000     96.000000
 -0.174151  0.114910  0.000000     96.000000
 -0.149273  0.100546  0.000000     96.000000
 -0.124394  0.086182  0.000000     96.000000
 -0.099515  0.071818  0.000000     96.000000
 -0.074636  0.057455  0.000000     96.000000
 -0.049758  0.043091  0.000000     96.000000
 -0.024879  0.028727  0.000000     96.000000
  0.000000  0.014364  0.000000     48.000000
  0.074636  0.000000  0.000000     48.000000
  0.099515 -0.014364  0.000000     96.000000
  0.124394 -0.028727  0.000000     96.000000
  0.149273 -0.043091  0.000000     96.000000
  0.174151 -0.057455  0.000000     96.000000
  0.199030 -0.071818  0.000000     96.000000
  0.223909 -0.086182  0.000000     96.000000
 -0.149273  0.129273  0.000000     96.000000
 -0.124394  0.114910  0.000000     96.000000
 -0.099515  0.100546  0.000000     96.000000
 -0.074636  0.086182  0.000000     96.000000
 -0.049758  0.071818  0.000000     96.000000
 -0.024879  0.057455  0.000000     96.000000
  0.000000  0.043091  0.000000     48.000000
  0.124394  0.000000  0.000000     48.000000
  0.149273 -0.014364  0.000000     96.000000
  0.174151 -0.028727  0.000000     96.000000
  0.199030 -0.043091  0.000000     96.000000
  0.223909 -0.057455  0.000000     96.000000
  0.248788 -0.071818  0.000000     96.000000
 -0.124394  0.143637  0.000000     96.000000
 -0.099515  0.129273  0.000000     96.000000
 -0.074636  0.114910  0.000000     96.000000
 -0.049758  0.100546  0.000000     96.000000
 -0.024879  0.086182  0.000000     96.000000
  0.000000  0.071818  0.000000     48.000000
  0.174151  0.000000  0.000000     48.000000
  0.199030 -0.014364  0.000000     96.000000
  0.223909 -0.028727  0.000000     96.000000
  0.248788 -0.043091  0.000000     96.000000
  0.273666 -0.057455  0.000000     96.000000
 -0.099515  0.158001  0.000000     96.000000
[...]
  -0.34375000  0.03125000  0.00000000       0.016
  -0.28125000  0.03125000  0.00000000       0.016
  -0.21875000  0.03125000  0.00000000       0.016
  -0.15625000  0.03125000  0.00000000       0.016
  -0.09375000  0.03125000  0.00000000       0.016
  -0.03125000  0.03125000  0.00000000       0.008
   0.09375000  0.09375000  0.00000000       0.008
   0.15625000  0.09375000  0.00000000       0.016
   0.21875000  0.09375000  0.00000000       0.016
   0.28125000  0.09375000  0.00000000       0.016
   0.34375000  0.09375000  0.00000000       0.016
   0.40625000  0.09375000  0.00000000       0.016
   0.46875000  0.09375000  0.00000000       0.016
  -0.46875000  0.09375000  0.00000000       0.016
  -0.40625000  0.09375000  0.00000000       0.016
  -0.34375000  0.09375000  0.00000000       0.016
  -0.28125000  0.09375000  0.00000000       0.016
  -0.21875000  0.09375000  0.00000000       0.016
  -0.15625000  0.09375000  0.00000000       0.016
  -0.09375000  0.09375000  0.00000000       0.008
   0.15625000  0.15625000  0.00000000       0.008
   0.21875000  0.15625000  0.00000000       0.016
   0.28125000  0.15625000  0.00000000       0.016
   0.34375000  0.15625000  0.00000000       0.016
   0.40625000  0.15625000  0.00000000       0.016
   0.46875000  0.15625000  0.00000000       0.016
  -0.46875000  0.15625000  0.00000000       0.016
  -0.40625000  0.15625000  0.00000000       0.016
  -0.34375000  0.15625000  0.00000000       0.016
  -0.28125000  0.15625000  0.00000000       0.016
  -0.21875000  0.15625000  0.00000000       0.016
  -0.15625000  0.15625000  0.00000000       0.008
   0.21875000  0.21875000  0.00000000       0.008
   0.28125000  0.21875000  0.00000000       0.016
   0.34375000  0.21875000  0.00000000       0.016
   0.40625000  0.21875000  0.00000000       0.016
   0.46875000  0.21875000  0.00000000       0.016
  -0.46875000  0.21875000  0.00000000       0.016
  -0.40625000  0.21875000  0.00000000       0.016
  -0.34375000  0.21875000  0.00000000       0.016
  -0.28125000  0.21875000  0.00000000       0.016
  -0.21875000  0.21875000  0.00000000       0.008
   0.28125000  0.28125000  0.00000000       0.008
   0.34375000  0.28125000  0.00000000       0.016
   0.40625000  0.28125000  0.00000000       0.016
   0.46875000  0.28125000  0.00000000       0.016
  -0.46875000  0.28125000  0.00000000       0.016
  -0.40625000  0.28125000  0.00000000       0.016
  -0.34375000  0.28125000  0.00000000       0.016
  -0.28125000  0.28125000  0.00000000       0.008
   0.34375000  0.34375000  0.00000000       0.008
   0.40625000  0.34375000  0.00000000       0.016
   0.46875000  0.34375000  0.00000000       0.016
  -0.46875000  0.34375000  0.00000000       0.016
  -0.40625000  0.34375000  0.00000000       0.016
  -0.34375000  0.34375000  0.00000000       0.008
   0.40625000  0.40625000  0.00000000       0.008
   0.46875000  0.40625000  0.00000000       0.016
  -0.46875000  0.40625000  0.00000000       0.016
  -0.40625000  0.40625000  0.00000000       0.008
   0.46875000  0.46875000  0.00000000       0.008
  -0.46875000  0.46875000  0.00000000       0.008

 position of ions in fractional coordinates (direct lattice)
   0.66666858  0.33333541  0.50000000
   0.33333541  0.66666858  0.50000000

 position of ions in cartesian coordinates  (Angst):
   1.25609669 -0.72520776 17.55733219
   1.25609669  0.72520776 17.55733219

 k-point  1 :   0.0312 0.0312 0.0000  plane waves:    5623
 k-point  2 :   0.0938 0.0312 0.0000  plane waves:    5617
 k-point  3 :   0.1562 0.0313 0.0000  plane waves:    5580
 k-point  4 :   0.2187 0.0313 0.0000  plane waves:    5585
 k-point  5 :   0.2812 0.0313 0.0000  plane waves:    5619
 k-point  6 :   0.3437 0.0313 0.0000  plane waves:    5618
 k-point  7 :   0.4062 0.0313 0.0000  plane waves:    5622
 k-point  8 :   0.4688 0.0312 0.0000  plane waves:    5652
 k-point  9 :  -0.4688 0.0312 0.0000  plane waves:    5648
 k-point 10 :  -0.4062 0.0312 0.0000  plane waves:    5626
 k-point 11 :  -0.3437 0.0312 0.0000  plane waves:    5619
 k-point 12 :  -0.2812 0.0312 0.0000  plane waves:    5600
 k-point 13 :  -0.2188 0.0312 0.0000  plane waves:    5570
 k-point 14 :  -0.1562 0.0312 0.0000  plane waves:    5601
 k-point 15 :  -0.0937 0.0312 0.0000  plane waves:    5623
 k-point 16 :  -0.0312 0.0312 0.0000  plane waves:    5637
 k-point 17 :   0.0938 0.0938 0.0000  plane waves:    5601
 k-point 18 :   0.1562 0.0938 0.0000  plane waves:    5579
 k-point 19 :   0.2187 0.0938 0.0000  plane waves:    5608
 k-point 20 :   0.2812 0.0938 0.0000  plane waves:    5625
 k-point 21 :   0.3437 0.0938 0.0000  plane waves:    5631
 k-point 22 :   0.4062 0.0938 0.0000  plane waves:    5646
 k-point 23 :   0.4688 0.0938 0.0000  plane waves:    5650
 k-point 24 :  -0.4688 0.0938 0.0000  plane waves:    5629
 k-point 25 :  -0.4062 0.0937 0.0000  plane waves:    5631
 k-point 26 :  -0.3438 0.0937 0.0000  plane waves:    5612
 k-point 27 :  -0.2812 0.0937 0.0000  plane waves:    5597
 k-point 28 :  -0.2187 0.0937 0.0000  plane waves:    5578
 k-point 29 :  -0.1562 0.0937 0.0000  plane waves:    5605
 k-point 30 :  -0.0937 0.0937 0.0000  plane waves:    5619
 k-point 31 :   0.1562 0.1562 0.0000  plane waves:    5603
 k-point 32 :   0.2188 0.1562 0.0000  plane waves:    5608
 k-point 33 :   0.2812 0.1562 0.0000  plane waves:    5618
 k-point 34 :   0.3437 0.1563 0.0000  plane waves:    5646
 k-point 35 :   0.4062 0.1562 0.0000  plane waves:    5639
 k-point 36 :   0.4688 0.1562 0.0000  plane waves:    5644
 k-point 37 :  -0.4687 0.1562 0.0000  plane waves:    5631
 k-point 38 :  -0.4062 0.1562 0.0000  plane waves:    5618
 k-point 39 :  -0.3437 0.1562 0.0000  plane waves:    5597
 k-point 40 :  -0.2812 0.1562 0.0000  plane waves:    5591
 k-point 41 :  -0.2187 0.1562 0.0000  plane waves:    5578
 k-point 42 :  -0.1562 0.1562 0.0000  plane waves:    5597
 k-point 43 :   0.2188 0.2188 0.0000  plane waves:    5631
 k-point 44 :   0.2812 0.2188 0.0000  plane waves:    5617
 k-point 45 :   0.3437 0.2187 0.0000  plane waves:    5654
 k-point 46 :   0.4062 0.2188 0.0000  plane waves:    5661
 k-point 47 :   0.4688 0.2188 0.0000  plane waves:    5631
 k-point 48 :  -0.4688 0.2188 0.0000  plane waves:    5619
 k-point 49 :  -0.4062 0.2187 0.0000  plane waves:    5606
 k-point 50 :  -0.3437 0.2187 0.0000  plane waves:    5616
 k-point 51 :  -0.2812 0.2187 0.0000  plane waves:    5598
 k-point 52 :  -0.2187 0.2187 0.0000  plane waves:    5576
 k-point 53 :   0.2812 0.2812 0.0000  plane waves:    5647
 k-point 54 :   0.3438 0.2812 0.0000  plane waves:    5656
 k-point 55 :   0.4062 0.2812 0.0000  plane waves:    5649
 k-point 56 :   0.4688 0.2812 0.0000  plane waves:    5635
 k-point 57 :  -0.4687 0.2812 0.0000  plane waves:    5618
 k-point 58 :  -0.4062 0.2812 0.0000  plane waves:    5623
 k-point 59 :  -0.3437 0.2812 0.0000  plane waves:    5631
 k-point 60 :  -0.2812 0.2812 0.0000  plane waves:    5618
 k-point 61 :   0.3438 0.3438 0.0000  plane waves:    5641
 k-point 62 :   0.4062 0.3438 0.0000  plane waves:    5656
 k-point 63 :   0.4688 0.3438 0.0000  plane waves:    5642
 k-point 64 :  -0.4687 0.3438 0.0000  plane waves:    5631
 k-point 65 :  -0.4062 0.3437 0.0000  plane waves:    5625
 k-point 66 :  -0.3437 0.3437 0.0000  plane waves:    5616
 k-point 67 :   0.4062 0.4062 0.0000  plane waves:    5656
 k-point 68 :   0.4688 0.4062 0.0000  plane waves:    5646
 k-point 69 :  -0.4687 0.4062 0.0000  plane waves:    5635
 k-point 70 :  -0.4062 0.4062 0.0000  plane waves:    5634
 k-point 71 :   0.4688 0.4688 0.0000  plane waves:    5652
 k-point 72 :  -0.4687 0.4687 0.0000  plane waves:    5646

 maximum and minimum number of plane-waves per node :      1905     1840

 maximum number of plane-waves:      5661
 maximum index in each direction:
   IXMAX=    5   IYMAX=    4   IZMAX=   67
   IXMIN=   -5   IYMIN=   -5   IZMIN=  -67

 real space projection operators:
  max/ min on nodes  :        220.19        191.69

 parallel 3D FFT for wavefunctions:
    minimum data exchange during FFTs selected (reduces bandwidth)
 parallel 3D FFT for charge:
    minimum data exchange during FFTs selected (reduces bandwidth)

 Broyden mixing: mesh for mixing (old mesh)
   NGX =  9   NGY =  9   NGZ =135
  (NGX  = 40   NGY  = 40   NGZ  =540)
  gives a total of  10935 points

 initial charge density was supplied:
 charge density of overlapping atoms calculated
 number of electron       8.0000000 magnetization       2.0000000
 keeping initial charge density in first step

 Maximum index for non-local projection operator         2215
 Maximum index for augmentation-charges          729 (set IRDMAX)

 First call to EWALD:  gamma=   0.307
 Maximum number of real-space cells 6x 6x 1
 Maximum number of reciprocal cells 1x 1x14

--------------------------------------- Iteration      1(   1)  ---------------------------------------

 eigenvalue-minimisations  :  3720
 total energy-change (2. order) : 0.6340187E+02  (-0.3168557E+03)
 number of electron       8.0000000 magnetization       2.0000000
 augmentation part        8.0000000 magnetization       2.0000000

 Free energy of the ion-electron system (eV)
  alpha Z        PSCENC =         1.85412811
  Ewald energy   TEWEN  =      2557.01761615
  -Hartree energ DENC   =     -2799.82704540
  -exchange      EXHF   =         0.00000000
  -V(xc)+E(xc)   XCENC  =        27.22545552
  PAW double counting   =       248.18317831     -248.48689109
  entropy T*S    EENTRO =        -0.00207676
  eigenvalues    EBANDS =       -58.26884234
  atomic energy  EATOM  =       335.70634272
  Solvation  Ediel_sol  =         0.00000000
  free energy    TOTEN  =        63.40186523 eV

  energy without entropy =       63.40394199  energy(sigma->0) =       63.40290361

[...]

 eigenvalue-minimisations  :  5144
 total energy-change (2. order) :-0.7493450E+02  (-0.5918296E+02)
 number of electron       8.0000000 magnetization       2.0000000
 augmentation part        8.0000000 magnetization       2.0000000

[...]

 Broyden mixing:
  rms(total) = 0.10529E+01    rms(broyden)= 0.10528E+01
  rms(prec ) = 0.10698E+01
  weight for this iteration     100.00

[...]

 eigenvalues of (default mixing * dielectric matrix)
  average eigenvalue GAMMA=   1.1250
  1.1250

[...]

 eigenvalue-minimisations  :  3456
 total energy-change (2. order) : 0.3062605E-02  (-0.5780403E-04)
 number of electron       7.9999999 magnetization       0.0110152
 augmentation part        0.2348887 magnetization       0.0111138

[...]

 Broyden mixing:
  rms(total) = 0.68542E-04    rms(broyden)= 0.68539E-04
  rms(prec ) = 0.87146E-04
  weight for this iteration     100.00

 eigenvalues of (default mixing * dielectric matrix)
  average eigenvalue GAMMA=   2.7383
 20.1439  9.9759  5.5290  4.2507  2.6958  2.6958  2.2754  2.0821  1.4701  1.0884
  1.0884  1.1602  1.1602  0.9285  0.8923  0.8923  0.7769  0.7226  0.6720  0.6130
  0.6130  0.6276  0.6276

[...]

--------------------------------------- Iteration      1(  29)  ---------------------------------------

 eigenvalue-minimisations  :  2353
 total energy-change (2. order) :-0.8543369E-05  (-0.1116053E-07)
 number of electron       7.9999999 magnetization       0.0000133
 augmentation part        0.2352848 magnetization       0.0000142

 Free energy of the ion-electron system (eV)
  alpha Z        PSCENC =         1.85412811
  Ewald energy   TEWEN  =      2557.01761615
  -Hartree energ DENC   =     -2842.42147015
  -exchange      EXHF   =         0.00000000
  -V(xc)+E(xc)   XCENC  =        28.32552050
  PAW double counting   =       922.17668117     -922.90684116
  entropy T*S    EENTRO =        -0.00000000
  eigenvalues    EBANDS =       -97.35079227
  atomic energy  EATOM  =       335.70634272
  Solvation  Ediel_sol  =         0.00000000
  free energy    TOTEN  =       -17.59881492 eV

  energy without entropy =      -17.59881492  energy(sigma->0) =      -17.59881492

 average (electrostatic) potential at core
  the test charge radii are     0.7672  0.7089
  (the norm of the test charge is              1.0000)
       1 -36.3705       2 -72.2731

 E-fermi :  -4.8445     XC(G=0):  -1.2537     alpha+bet : -1.0310

 spin component 1

 k-point     1 :       0.0312    0.0312    0.0000
  band No.  band energies     occupation
      1     -22.6143      1.00000
      2     -10.1848      1.00000
      3      -6.6458      1.00000
      4      -6.5187      1.00000
      5      -0.2666      0.00000
      6       0.5689      0.00000
      7       0.8165      0.00000
      8       1.0561      0.00000
      9       1.1033      0.00000
     10       1.5938      0.00000
     11       5.9004      0.00000
     12       6.5807      0.00000

[...]

 spin component 2

[...]

 k-point    72 :      -0.4687    0.4687    0.0000
  band No.  band energies     occupation
      1     -19.6682      1.00000
      2     -13.8211      1.00000
      3      -9.1546      1.00000
      4      -6.0457      1.00000
      5      -0.1698      0.00000
      6       4.5691      0.00000
      7       6.7546      0.00000
      8       7.3563      0.00000
      9       7.7181      0.00000
     10       7.9098      0.00000
     11       8.0435      0.00000
     12       8.5362      0.00000

 soft charge-density along one line, spin component           1
         0         1         2         3         4         5         6         7         8         9
 total charge-density along one line

 soft charge-density along one line, spin component           2
         0         1         2         3         4         5         6         7         8         9
 total charge-density along one line

------------------------ aborting loop because EDIFF is reached ----------------------------------------

 total charge

# of ion       s       p       d       tot
    1        0.740   1.414   0.000   2.154
    2        1.222   2.785   0.000   4.008
tot          1.963   4.200   0.000   6.162

 magnetization (x)

[...]

  FORCE on cell =-STRESS in cart. coord.  units (eV):
  Direction    XX          YY          ZZ          XY          YZ          ZX
  Alpha Z     1.85413     1.85413     1.85413
  Ewald    2828.60261  2828.60228 -3100.18746     0.00000     0.00000     0.00000
  Hartree  2813.61756  2813.61759 -2784.78809     0.00001    -0.00000    -0.00000
  E(xc)     -31.54311   -31.54310   -32.49084     0.00000     0.00000    -0.00000
  Local   -5726.44625 -5726.44653  5785.23324     0.00022     0.00000    -0.00000
  n-local   -15.05378   -15.05374   -14.96673     0.25713     0.00000     0.00000
  augment     1.08650     1.08650     1.26266     0.00000     0.00000    -0.00000
  Kinetic   127.89578   127.89549   144.06663    -0.42426     0.00000    -0.00000
  Fock        0.00000     0.00000     0.00000     0.00000     0.00000     0.00000
  Total       0.01303     0.01304    -0.01645    -0.00000     0.00000     0.00000
  in kB       0.10882     0.10882    -0.13733    -0.00000     0.00000     0.00000

 VOLUME and BASIS-vectors are now :
  energy-cutoff  :      550.00
  volume of cell :      191.92
      direct lattice vectors                 reciprocal lattice vectors
     1.256091676 -2.175624343  0.000000000     0.398060117 -0.229819087  0.000000000
     1.256091676  2.175624343  0.000000000     0.398060117  0.229819087  0.000000000
     0.000000000  0.000000000 35.114664386     0.000000000  0.000000000  0.028478131

  length of vectors
     2.512191788  2.512191788 35.114664386     0.459639717  0.459639717  0.028478131

 FORCES acting on ions
    electron-ion (+dipol)            ewald-force                    non-local-force                 convergence-correction
   0.113E-03 -.502E-03 -.175E-09   0.114E-13 0.777E-03 0.000E+00   0.544E-16 -.214E-15 0.000E+00   0.255E-08 -.308E-08 0.171E-12
   -.304E-02 0.484E-03 -.113E-10   -.222E-13 -.777E-03 0.000E+00   -.548E-17 -.143E-17 0.000E+00   -.199E-07 -.496E-08 0.286E-12
   -.292E-02 -.175E-04 -.187E-09   -.108E-13 0.691E-15 0.000E+00   0.489E-16 -.216E-15 0.000E+00   -.173E-07 -.805E-08 0.456E-12

 POSITION                                       TOTAL-FORCE (eV/Angst)
      1.25610     -0.72521     17.55733         0.000000     -0.000000      0.000000
      1.25610      0.72521     17.55733        -0.000000      0.000000      0.000000
    total drift:                               -0.002923     -0.000018     -0.000000

  FREE ENERGIE OF THE ION-ELECTRON SYSTEM (eV)
  free  energy   TOTEN  =       -17.59881492 eV

  energy  without entropy=      -17.59881492  energy(sigma->0) =      -17.59881492

 reached required accuracy - stopping structural energy minimisation
 writing wavefunctions

 total charge

[...]

 magnetization (x)

# of ion       s       p       d       tot
    1       -0.000   0.000   0.000   0.000
    2        0.000   0.000   0.000   0.000
tot          0.000   0.000   0.000   0.000