 vasp.5.4.4.18Apr17-6-g9f103f2a35 (build May 01 2020 14:57:12) complex

 executed on             LinuxIFC date 2020.11.08  10:54:16

 INCAR:
 POTCAR:    PAW_PBE B 06Sep2000
 POTCAR:    PAW_PBE N 08Apr2002
 POTCAR:    PAW_PBE C 08Apr2002
 POTCAR:    PAW_PBE F 08Apr2002
 POTCAR:    PAW_PBE O 08Apr2002

 POTCAR:    PAW_PBE B 06Sep2000
   VRHFIN =B: s2p1

   TITEL  = PAW_PBE B 06Sep2000
   POMASS =   10.811; ZVAL   =    3.000    mass and valenz
   ENMAX  =  318.614; ENMIN  =  238.960 eV

 POTCAR:    PAW_PBE N 08Apr2002
   VRHFIN =N: s2p3

   TITEL  = PAW_PBE N 08Apr2002
   POMASS =   14.001; ZVAL   =    5.000    mass and valenz
   ENMAX  =  400.000; ENMIN  =  300.000 eV

 POTCAR:    PAW_PBE C 08Apr2002
   VRHFIN =C: s2p2

[...]

 POTCAR:    PAW_PBE F 08Apr2002
   VRHFIN =F: s2p5

[...]

 POTCAR:    PAW_PBE O 08Apr2002
   VRHFIN =O: s2p4

   TITEL  = PAW_PBE O 08Apr2002
   POMASS =   16.000; ZVAL   =    6.000    mass and valenz
   ENMAX  =  400.000; ENMIN  =  300.000 eV

 Optimization of the real space projectors (new method)

 maximal supplied QI-value         = 22.11
 optimisation between [QCUT,QGAM] = [ 11.94, 23.88] = [ 39.92,159.67] Ry
 Optimized for a Real-space Cutoff    1.18 Angstroem

   l    n(q)    QCUT    max X(q) W(low)/X(q) W(high)/X(q)  e(spline)
   0      8    11.939    53.033    0.11E-03    0.34E-03    0.60E-07
   0      8    11.939    34.740    0.11E-03    0.34E-03    0.59E-07
   1      8    11.939    30.949    0.22E-03    0.20E-03    0.17E-06
   1      8    11.939    19.518    0.20E-03    0.18E-03    0.16E-06
 Optimization of the real space projectors (new method)

[...]

   l    n(q)    QCUT    max X(q) W(low)/X(q) W(high)/X(q)  e(spline)
   0      8    11.883    14.049    0.56E-04    0.86E-04    0.22E-06
   0      8    11.883     8.945    0.81E-04    0.11E-03    0.30E-06
   1      8    11.883     7.086    0.16E-03    0.15E-04    0.31E-06
   1      8    11.883     6.747    0.15E-03    0.14E-04    0.28E-06
 Optimization of the real space projectors (new method)

 maximal supplied QI-value         = 24.76
 optimisation between [QCUT,QGAM] = [ 11.88, 24.01] = [ 39.54,161.47] Ry
 Optimized for a Real-space Cutoff    1.18 Angstroem

   l    n(q)    QCUT    max X(q) W(low)/X(q) W(high)/X(q)  e(spline)
   0      8    11.883    20.381    0.86E-04    0.11E-03    0.31E-06
   0      8    11.883    15.268    0.94E-04    0.12E-03    0.33E-06
   1      8    11.883     5.964    0.19E-03    0.18E-04    0.33E-06
   1      8    11.883     5.382    0.17E-03    0.20E-04    0.29E-06
  PAW_PBE B 06Sep2000                   :
  PAW_PBE N 08Apr2002                   :
  PAW_PBE C 08Apr2002                   :
  PAW_PBE F 08Apr2002                   :
  PAW_PBE O 08Apr2002                   :

 POSCAR: B N C F O
  positions in direct lattice
  velocities in cartesian coordinates

 METAGGA = SCAN     LMAXTAU =  6    LMIXTAU =  F

 ion  position               nearest neighbor table
   1  0.083  0.042  0.502-  65 1.45  72 1.45  73 1.45
   2  0.083  0.167  0.502-  65 1.45  66 1.45  74 1.45
   3  0.083  0.292  0.502-  67 1.45  66 1.45  75 1.45
   4  0.083  0.417  0.502-  68 1.45  67 1.45  76 1.45
   5  0.083  0.542  0.502-  68 1.45  77 1.45  69 1.45
   6  0.083  0.667  0.502-  69 1.45  78 1.45  70 1.45
   7  0.083  0.792  0.502-  71 1.45  79 1.45  70 1.45
   8  0.083  0.917  0.502-  72 1.45  80 1.45  71 1.45
   9  0.208  0.042  0.502-  80 1.45  81 1.45  73 1.45
  10  0.208  0.167  0.502-  73 1.45  74 1.45  82 1.45
  11  0.208  0.292  0.502-  74 1.45  75 1.45  83 1.45
  12  0.208  0.417  0.502-  76 1.45  84 1.45  75 1.45
  13  0.208  0.542  0.502-  77 1.45  85 1.45  76 1.45
  14  0.208  0.667  0.502-  77 1.45  86 1.45  78 1.45
  15  0.208  0.792  0.502-  87 1.45  78 1.45  79 1.45
  16  0.208  0.917  0.502-  80 1.45  88 1.45  79 1.45
  17  0.333  0.042  0.502-  88 1.45  89 1.45  81 1.45
  18  0.333  0.167  0.502-  90 1.45  81 1.45  82 1.45
  19  0.333  0.292  0.502-  91 1.45  82 1.45  83 1.45
  20  0.333  0.417  0.502-  92 1.45  84 1.45  83 1.45
  21  0.333  0.542  0.502-  93 1.45  85 1.45  84 1.45
  22  0.333  0.667  0.502-  86 1.45  94 1.45  85 1.45
  23  0.333  0.792  0.502-  86 1.45  95 1.45  87 1.45
  24  0.333  0.917  0.502-  87 1.45  88 1.45  96 1.45
  25  0.458  0.042  0.502-  96 1.45  89 1.45  97 1.45
  26  0.458  0.167  0.502-  89 1.45  98 1.45  90 1.45
  27  0.458  0.292  0.502-  99 1.45  90 1.45  91 1.45
  28  0.458  0.417  0.502- 100 1.45  92 1.45  91 1.45
  29  0.458  0.542  0.502- 101 1.45  93 1.45  92 1.45
  30  0.458  0.667  0.502-  94 1.45 102 1.45  93 1.45
  31  0.458  0.792  0.502-  94 1.45  95 1.45 103 1.45
  32  0.458  0.917  0.502-  95 1.45 104 1.45  96 1.45
  33  0.583  0.042  0.502- 104 1.45 105 1.45  97 1.45
  34  0.583  0.167  0.502-  97 1.45 106 1.45  98 1.45
  35  0.583  0.292  0.502-  99 1.45  98 1.45 107 1.45
  36  0.583  0.417  0.502- 100 1.45  99 1.45 108 1.45
  37  0.583  0.542  0.502- 101 1.45 100 1.45 109 1.45
  38  0.583  0.667  0.502- 101 1.45 102 1.45 110 1.45
  39  0.583  0.792  0.502- 102 1.45 103 1.45 111 1.45
  40  0.583  0.917  0.502- 103 1.45 104 1.45 112 1.45
  41  0.708  0.042  0.502- 113 1.45 112 1.45 105 1.45
  42  0.708  0.167  0.502- 114 1.45 106 1.45 105 1.45
  43  0.708  0.292  0.502- 107 1.45 115 1.45 106 1.45
  44  0.708  0.417  0.502- 108 1.45 107 1.45 116 1.45
  45  0.708  0.542  0.502- 108 1.45 109 1.45 117 1.45
  46  0.708  0.667  0.502- 109 1.45 110 1.45 118 1.45
  47  0.708  0.792  0.502- 110 1.45 119 1.45 111 1.45
  48  0.708  0.917  0.502- 120 1.45 111 1.45 112 1.45
  49  0.833  0.042  0.502- 121 1.45 113 1.45 120 1.45
  50  0.833  0.167  0.502- 122 1.45 114 1.45 113 1.45
  51  0.833  0.292  0.502- 123 1.45 115 1.45 114 1.45
  52  0.833  0.417  0.502- 124 1.45 116 1.45 115 1.45
  53  0.833  0.542  0.502- 116 1.45 125 1.45 117 1.45
  54  0.833  0.667  0.502- 117 1.45 126 1.45 118 1.45
  55  0.833  0.792  0.502- 127 1.45 118 1.45 119 1.45
  56  0.833  0.917  0.502- 128 1.45 120 1.45 119 1.45
  57  0.958  0.042  0.502- 121 1.45  65 1.45 128 1.45
  58  0.958  0.167  0.502- 122 1.45 121 1.45  66 1.45
  59  0.958  0.292  0.502- 123 1.45 122 1.45  67 1.45
  60  0.958  0.417  0.502-  68 1.45 123 1.45 124 1.45
[...]
 124  0.917  0.458  0.502-  52 1.45  61 1.45  60 1.45
 125  0.917  0.583  0.502-  53 1.45  62 1.45  61 1.45
 126  0.917  0.708  0.502-  54 1.45  62 1.45  63 1.45
 127  0.917  0.833  0.502-  55 1.45  63 1.45  64 1.45
 128  0.917  0.958  0.502-  56 1.45  64 1.45  57 1.45
 129  0.283  0.225  0.664- 132 1.34 134 1.34 133 1.35 130 1.51
 130  0.270  0.204  0.623- 136 1.33 135 1.33 129 1.51
 131  0.237  0.388  0.611- 137 1.16 138 1.16
 132  0.351  0.290  0.669- 129 1.34
 133  0.284  0.170  0.686- 129 1.35
 134  0.226  0.237  0.677- 129 1.34
 135  0.327  0.197  0.607- 130 1.33
 136  0.202  0.144  0.615- 130 1.33
 137  0.303  0.429  0.610- 131 1.16
 138  0.171  0.346  0.613- 131 1.16

IMPORTANT INFORMATION: All symmetrisations will be switched off!
NOSYMM: (Re-)initialisation of all symmetry stuff for point group C_1.

 KPOINTS: K-Point Grid

Automatic generation of k-mesh.
Space group operators:
 irot       det(A)        alpha          n_x          n_y          n_z        tau_x        tau_y        tau_z
    1     1.000000     0.000001     1.000000     0.000000     0.000000     0.000000     0.000000     0.000000

 Subroutine IBZKPT returns following result:

 Found      6 irreducible k-points:

 Following reciprocal coordinates:
            Coordinates               Weight
  0.250000  0.250000  0.000000     16.000000
  0.500000 -0.250000  0.000000     16.000000
  0.250000  0.500000  0.000000     16.000000
 -0.250000  0.250000  0.000000     16.000000
 -0.000000  0.250000  0.000000     16.000000
  0.250000 -0.000000  0.000000     16.000000

 Following cartesian coordinates:
            Coordinates               Weight
  0.024879  0.000000  0.000000     16.000000
  0.012439 -0.021546  0.000000     16.000000
  0.037318  0.007182  0.000000     16.000000
  0.000000  0.014364  0.000000     16.000000
  0.012439  0.007182  0.000000     16.000000
  0.012439 -0.007182  0.000000     16.000000

 SYSTEM =  hBN
 POSCAR =  B N C F O

 Startparameter for this run:
   NWRITE =      2    write-flag & timer
   PREC   = accura    normal or accurate (medium, high low for compatibility)
   ISTART =      1    job   : 0-new  1-cont  2-samecut
   ICHARG =      0    charge: 1-file 2-atom 10-const
   ISPIN  =      2    spin polarized calculation?
   LNONCOLLINEAR =      F non collinear calculations
   LSORBIT =      F    spin-orbit coupling
   INIWAV =      1    electr: 0-lowe 1-rand  2-diag
   LASPH  =      T    aspherical Exc in radial PAW
   METAGGA=      F    non-selfconsistent MetaGGA calc.

 Electronic Relaxation 1
   ENCUT  =  550.0 eV  40.42 Ry    6.36 a.u.  38.43 38.43 66.93*2*pi/ulx,y,z
   ENINI  =  550.0     initial cutoff
   ENAUG  =  644.9 eV  augmentation charge cutoff
   NELM   =    100;   NELMIN=  2; NELMDL=  0     # of ELM steps
   EDIFF  = 0.1E-04   stopping-criterion for ELM
   LREAL  =      T    real-space projection
   NLSPLINE    = F    spline interpolate recip. space projectors
   LCOMPAT=      F    compatible to vasp.4.4
   GGA_COMPAT  = T    GGA compatible to vasp.4.4-vasp.4.6
   LMAXPAW     = -100 max onsite density
   LMAXMIX     =    2 max onsite mixed and CHGCAR
   VOSKOWN=      0    Vosko Wilk Nusair interpolation
   ROPT   =   -0.00025  -0.00025  -0.00025  -0.00025
   ROPT   =   -0.00025
 Ionic relaxation
   EDIFFG = -.2E-01   stopping-criterion for IOM
   NSW    =      0    number of steps for IOM
   NBLOCK =      1;   KBLOCK =      1    inner block; outer block
   IBRION =     -1    ionic relax: 0-MD 1-quasi-New 2-CG
   NFREE  =      1    steps in history (QN), initial steepest desc. (CG)
   ISIF   =      2    stress and relaxation
   IWAVPR =     10    prediction:  0-non 1-charg 2-wave 3-comb
   ISYM   =      0    0-nonsym 1-usesym 2-fastsym
   LCORR  =      T    Harris-Foulkes like correction to forces

   POTIM  = 0.5000    time-step for ionic-motion
   TEIN   =    0.0    initial temperature
   TEBEG  =    0.0;   TEEND  =   0.0 temperature during run
   SMASS  =  -3.00    Nose mass-parameter (am)
   estimated Nose-frequenzy (Omega)   =  0.10E-29 period in steps =****** mass=  -0.923E-26a.u.
   SCALEE = 1.0000    scale energy and forces
   NPACO  =    256;   APACO  = 16.0  distance and # of slots for P.C.
   PSTRESS=    0.0 pullay stress

  Mass of Ions in am
   POMASS =  10.81 14.00 12.01 19.00 16.00
  Ionic Valenz
   ZVAL   =   3.00  5.00  4.00  7.00  6.00
  Atomic Wigner-Seitz radii
  virtual crystal weights
   VCA    =   1.00  1.00  1.00  1.00  1.00
   NELECT =     568.5000    total number of electrons
   NUPDOWN=      -1.0000    fix difference up-down

 DOS related values:
   EMIN   = -10.00;   EMAX   =  5.00  energy-range for DOS
   EFERMI =   0.00
   ISMEAR =     0;   SIGMA  =   0.05  broadening in eV -4-tet -1-fermi 0-gaus

 Electronic relaxation 2 (details)
   IALGO  =     68    algorithm
   LDIAG  =      T    sub-space diagonalisation (order eigenvalues)
   LSUBROT=      F    optimize rotation matrix (better conditioning)
   TURBO    =      0    0=normal 1=particle mesh
[...]
   -.567E+00 0.181E+02 0.271E+02   0.574E+00 -.181E+02 -.271E+02   0.194E-03 0.955E-04 -.107E-02   -.454E-05 -.387E-04 -.143E-02
   -.840E+01 0.273E+02 0.429E+02   0.840E+01 -.273E+02 -.429E+02   0.269E-04 0.412E-02 0.225E-03   -.102E-04 -.323E-04 -.140E-02
   -.234E+02 0.211E+02 0.564E+02   0.234E+02 -.211E+02 -.563E+02   -.378E-02 0.335E-02 0.182E-02   0.379E-05 -.532E-04 -.141E-02
   -.300E+02 0.746E+01 0.528E+02   0.300E+02 -.744E+01 -.527E+02   -.550E-02 0.190E-02 0.545E-03   0.581E-04 -.149E-04 -.145E-02
   -.280E+02 -.362E+01 0.414E+02   0.279E+02 0.361E+01 -.413E+02   -.535E-02 -.186E-02 0.668E-03   0.782E-04 0.387E-04 -.147E-02
   -.175E+02 -.743E+01 0.273E+02   0.175E+02 0.740E+01 -.272E+02   -.131E-02 -.190E-02 -.107E-03   0.497E-04 0.319E-04 -.147E-02
   -.716E+01 -.238E+01 0.199E+02   0.717E+01 0.237E+01 -.199E+02   0.706E-03 -.455E-03 -.718E-03   0.240E-04 0.642E-05 -.147E-02
   -.126E+01 0.663E+01 0.199E+02   0.127E+01 -.663E+01 -.199E+02   0.311E-03 0.131E-03 -.881E-03   0.224E-05 -.264E-04 -.146E-02
   -.669E+00 0.722E+01 0.194E+02   0.675E+00 -.722E+01 -.194E+02   0.240E-03 0.565E-03 -.813E-03   -.215E-05 -.286E-04 -.146E-02
   -.523E+01 0.142E+02 0.247E+02   0.524E+01 -.142E+02 -.247E+02   0.341E-03 -.155E-03 -.123E-02   0.123E-04 -.444E-04 -.145E-02
   -.144E+02 0.166E+02 0.313E+02   0.144E+02 -.166E+02 -.313E+02   0.264E-03 -.786E-03 -.942E-03   0.344E-04 -.444E-04 -.144E-02
   -.214E+02 0.112E+02 0.333E+02   0.214E+02 -.112E+02 -.333E+02   0.308E-03 -.101E-02 -.107E-02   0.634E-04 -.344E-04 -.146E-02
   -.211E+02 0.369E+01 0.297E+02   0.211E+02 -.367E+01 -.297E+02   0.612E-03 -.125E-02 -.102E-02   0.793E-04 -.779E-06 -.147E-02
   -.150E+02 -.171E+01 0.238E+02   0.150E+02 0.171E+01 -.238E+02   0.101E-02 -.514E-03 -.804E-03   0.595E-04 0.149E-04 -.147E-02
   -.692E+01 -.243E+01 0.191E+02   0.691E+01 0.242E+01 -.191E+02   0.662E-03 -.172E-03 -.839E-03   0.275E-04 0.119E-04 -.147E-02
   -.152E+01 0.101E+01 0.176E+02   0.152E+01 -.102E+01 -.175E+02   0.461E-03 -.331E-04 -.646E-03   0.314E-05 -.852E-05 -.147E-02
   0.400E+01 -.101E+01 0.182E+02   -.399E+01 0.100E+01 -.182E+02   -.897E-03 0.408E-03 -.669E-03   -.247E-04 0.240E-05 -.147E-02
   0.891E+00 0.230E+01 0.192E+02   -.885E+00 -.230E+01 -.192E+02   -.604E-03 0.171E-03 -.703E-03   -.582E-05 -.527E-05 -.147E-02
   -.494E+01 0.584E+01 0.209E+02   0.494E+01 -.584E+01 -.209E+02   0.761E-05 -.417E-03 -.103E-02   0.217E-04 -.208E-04 -.146E-02
   -.102E+02 0.673E+01 0.221E+02   0.102E+02 -.672E+01 -.221E+02   0.704E-03 -.589E-03 -.111E-02   0.510E-04 -.279E-04 -.147E-02
   -.113E+02 0.456E+01 0.217E+02   0.113E+02 -.454E+01 -.217E+02   0.108E-02 -.588E-03 -.989E-03   0.585E-04 -.153E-04 -.147E-02
   -.768E+01 0.129E+01 0.201E+02   0.766E+01 -.128E+01 -.201E+02   0.102E-02 0.648E-04 -.787E-03   0.402E-04 0.164E-05 -.147E-02
   -.172E+01 -.132E+01 0.187E+02   0.171E+01 0.132E+01 -.186E+02   0.589E-03 0.724E-04 -.640E-03   0.470E-05 0.697E-05 -.147E-02
   0.300E+01 -.226E+01 0.180E+02   -.299E+01 0.226E+01 -.180E+02   -.433E-03 0.674E-03 -.696E-03   -.239E-04 0.122E-04 -.147E-02
   0.125E+02 -.649E+01 0.226E+02   -.125E+02 0.649E+01 -.226E+02   -.899E-03 -.185E-03 -.100E-02   -.489E-04 0.229E-04 -.146E-02
   0.925E+01 -.768E+01 0.220E+02   -.924E+01 0.767E+01 -.220E+02   -.767E-03 -.260E-03 -.780E-03   -.404E-04 0.353E-04 -.147E-02
   0.315E+01 -.552E+01 0.203E+02   -.315E+01 0.551E+01 -.203E+02   -.317E-03 -.581E-03 -.694E-03   0.180E-05 0.250E-04 -.147E-02
   -.197E+01 -.158E+01 0.187E+02   0.197E+01 0.158E+01 -.187E+02   -.351E-03 -.580E-04 -.816E-03   0.277E-04 0.708E-05 -.147E-02
   -.337E+01 0.128E+01 0.180E+02   0.336E+01 -.127E+01 -.180E+02   0.176E-03 -.762E-04 -.680E-03   0.227E-04 -.685E-05 -.147E-02
   -.400E+00 0.195E+01 0.182E+02   0.393E+00 -.194E+01 -.182E+02   0.181E-03 -.936E-04 -.600E-03   0.814E-05 -.512E-05 -.146E-02
   0.554E+01 0.421E+00 0.195E+02   -.554E+01 -.414E+00 -.195E+02   -.382E-03 0.397E-03 -.722E-03   -.250E-04 0.723E-06 -.146E-02
   0.110E+02 -.299E+01 0.215E+02   -.110E+02 0.299E+01 -.215E+02   -.105E-02 0.246E-03 -.912E-03   -.463E-04 0.356E-05 -.146E-02
   0.236E+02 -.758E+01 0.338E+02   -.236E+02 0.760E+01 -.338E+02   0.939E-03 -.166E-02 -.844E-03   -.760E-04 0.157E-04 -.144E-02
   0.202E+02 -.150E+02 0.346E+02   -.201E+02 0.150E+02 -.345E+02   0.241E-02 -.307E-02 -.430E-03   -.523E-04 0.367E-04 -.146E-02
   0.114E+02 -.177E+02 0.299E+02   -.115E+02 0.176E+02 -.299E+02   0.272E-02 -.180E-02 -.780E-04   -.121E-04 0.702E-04 -.147E-02
   0.322E+01 -.128E+02 0.227E+02   -.324E+01 0.127E+02 -.227E+02   0.143E-03 -.512E-03 -.710E-03   -.925E-06 0.530E-04 -.147E-02
[...]
   0.490E+00 -.168E+01 0.295E+02   -.503E+00 0.169E+01 -.295E+02   0.398E-03 -.118E-02 0.244E-01   0.504E-05 -.586E-05 -.259E-02
   0.783E+01 0.342E+01 0.312E+02   -.784E+01 -.341E+01 -.312E+02   0.811E-04 -.129E-02 0.246E-01   -.186E-04 -.158E-04 -.258E-02
   0.203E+02 0.260E+01 0.374E+02   -.203E+02 -.258E+01 -.374E+02   -.107E-03 -.531E-03 0.273E-01   -.575E-04 -.194E-04 -.257E-02
   0.310E+02 -.562E+01 0.455E+02   -.310E+02 0.563E+01 -.455E+02   0.570E-03 -.302E-03 0.291E-01   -.968E-04 -.458E-05 -.256E-02
   0.922E+00 0.181E+02 -.368E+03   -.342E+01 -.199E+02 0.362E+03   0.247E+01 0.161E+01 0.834E+01   -.344E-03 -.427E-03 0.484E-03
   -.428E+02 -.758E+02 -.269E+03   0.509E+02 0.869E+02 0.273E+03   -.834E+01 -.115E+02 -.256E+01   -.179E-03 -.302E-03 0.399E-03
   -.375E+02 -.993E+02 -.370E+03   0.375E+02 0.993E+02 0.372E+03   -.244E-01 -.513E-01 -.676E-01   0.187E-03 0.215E-04 0.318E-04
   -.548E+03 0.533E+02 -.772E+03   0.607E+03 -.558E+02 0.784E+03   -.577E+02 0.197E+01 -.756E+01   -.544E-03 -.583E-03 0.117E-02
   0.207E+03 0.407E+03 -.984E+03   -.230E+03 -.448E+03 0.102E+04   0.223E+02 0.402E+02 -.321E+02   -.431E-03 -.474E-03 0.517E-03
   0.184E+03 -.425E+03 -.894E+03   -.204E+03 0.476E+03 0.919E+03   0.195E+02 -.509E+02 -.203E+02   -.431E-03 -.505E-03 0.100E-02
   -.165E+03 0.398E+03 -.379E+03   0.189E+03 -.447E+03 0.356E+03   -.228E+02 0.477E+02 0.260E+02   -.434E-03 -.404E-03 0.522E-03
   0.487E+03 -.328E+02 -.471E+03   -.546E+03 0.401E+02 0.460E+03   0.571E+02 -.721E+01 0.132E+02   -.141E-03 -.575E-03 0.625E-03
   -.345E+03 -.175E+02 -.543E+03   0.410E+03 -.807E+01 0.542E+03   -.617E+02 0.243E+02 0.352E+01   0.454E-03 -.137E-04 0.640E-04
   0.245E+03 -.251E+03 -.572E+03   -.311E+03 0.277E+03 0.578E+03   0.618E+02 -.241E+02 -.331E+01   -.165E-03 0.191E-03 0.803E-04
   -.126E+02 -.221E+02 0.137E+02   0.341E-12 -.284E-12 -.114E-12   0.126E+02 0.219E+02 -.132E+02   -.203E-02 -.303E-02 -.252E+00

 POSITION                                       TOTAL-FORCE (eV/Angst)
      1.25579     -0.72419     17.55935         0.000538     -0.002584     -0.006295
      2.51175      1.45151     17.55975         0.000865     -0.001617     -0.005217
      3.76784      3.62717     17.55897         0.003022     -0.002359     -0.005859
      5.02417      5.80260     17.55766        -0.000409      0.000729     -0.006384
      6.28037      7.97805     17.55736        -0.000186      0.001769     -0.006005
      7.53646     10.15368     17.55737         0.000105      0.000471     -0.006051
      8.79254     12.32934     17.55742        -0.000245     -0.000881     -0.005813
     10.04858     14.50504     17.55811        -0.000516     -0.001433     -0.005709
      2.51193     -2.89999     17.55996         0.000982     -0.000838     -0.004453
      3.76780     -0.72422     17.56025         0.003466     -0.004341     -0.005823
      5.02393      1.45127     17.55871         0.002583      0.000873     -0.007824
      6.28038      3.62731     17.55524         0.000127     -0.000810     -0.006785
      7.53655      5.80258     17.55720         0.000318      0.000848     -0.006458
      8.79257      7.97810     17.55749         0.000370      0.000393     -0.006155
     10.04866     10.15371     17.55746        -0.000358      0.000124     -0.006187
     11.30470     12.32941     17.55818        -0.000216     -0.001641     -0.005796
      3.76816     -5.07567     17.55946        -0.000028     -0.000797     -0.006194
      5.02419     -2.90017     17.56095         0.000244      0.001628     -0.006403
      6.28054     -0.72440     17.56136        -0.002726     -0.002403     -0.004437
      7.53685      1.45117     17.55843        -0.001434      0.001814     -0.008927
      8.79285      3.62709     17.55816        -0.002743     -0.003105     -0.004564
     10.04872      5.80254     17.55786         0.000574     -0.000417     -0.006321
     11.30476      7.97810     17.55748         0.000004      0.000189     -0.006277
     12.56081     10.15376     17.55766         0.000290     -0.001220     -0.005625
      5.02425     -7.25125     17.55782         0.000475     -0.001673     -0.005491
      6.28028     -5.07565     17.55945         0.000803     -0.000970     -0.005966
      7.53643     -2.89998     17.56031         0.000350     -0.001661     -0.004423
      8.79258     -0.72433     17.55963         0.001306     -0.001388     -0.005365
     10.04872      1.45137     17.55866         0.000684     -0.001564     -0.006234
     11.30475      3.62695     17.55815         0.001299     -0.001242     -0.006189
     12.56082      5.80249     17.55756         0.001005     -0.000889     -0.005915
     13.81691      7.97807     17.55731         0.000375      0.000367     -0.006142
      6.28034     -9.42695     17.55724         0.000481      0.001251     -0.006227
      7.53639     -7.25124     17.55758         0.000220     -0.000952     -0.005772
      8.79245     -5.07557     17.55820         0.000935     -0.002096     -0.005870
     10.04853     -2.89995     17.55823         0.001789     -0.001934     -0.005729
     11.30464     -0.72433     17.55786         0.001861     -0.001517     -0.005623
     12.56076      1.45124     17.55770         0.001279     -0.000900     -0.005820
     13.81687      3.62682     17.55749         0.000461     -0.000267     -0.006037
     15.07298      5.80243     17.55728         0.000379     -0.000230     -0.006077
      7.53643    -11.60257     17.55730        -0.000641      0.000474     -0.005990
      8.79249     -9.42691     17.55733        -0.000499      0.000295     -0.006074
     10.04856     -7.25127     17.55736        -0.000095      0.000082     -0.005996
     11.30464     -5.07566     17.55737         0.000435     -0.000077     -0.005919
     12.56072     -2.90005     17.55730         0.000733     -0.000192     -0.005852
     13.81682     -0.72446     17.55730         0.000619      0.000301     -0.005957
     15.07293      1.45116     17.55733         0.000455     -0.000123     -0.006019
     16.32904      3.62676     17.55728        -0.000278      0.000783     -0.005953
      8.79248    -13.77815     17.55758        -0.000416     -0.000186     -0.006070
     10.04856    -11.60249     17.55778        -0.000254     -0.000435     -0.006021
     11.30465     -9.42687     17.55765        -0.000027     -0.000797     -0.006034
     12.56077     -7.25130     17.55738        -0.000316      0.000495     -0.006097
     13.81686     -5.07572     17.55727         0.000118      0.000413     -0.006112
     15.07294     -2.90011     17.55726         0.000193      0.000232     -0.006121
     16.32903     -0.72449     17.55727        -0.000258      0.000563     -0.006057
     17.58511      1.45117     17.55736        -0.000700      0.000357     -0.006031
     10.04850    -15.95366     17.55824        -0.000431     -0.001122     -0.005520
     11.30458    -13.77797     17.55871        -0.000478     -0.001246     -0.006373
     12.56067    -11.60242     17.55849         0.000090     -0.000022     -0.006453
     13.81685     -9.42689     17.55771        -0.000177      0.000112     -0.005891
[...]
     13.81685     -7.97647     17.55710         0.000734     -0.000353      0.006990
     15.07296     -5.80091     17.55695         0.000305      0.000522      0.006924
     16.32903     -3.62531     17.55692         0.000544      0.000312      0.006837
     17.58509     -1.44967     17.55695         0.001118      0.000571      0.007059
     18.84114      0.72601     17.55724         0.001618      0.000419      0.007320
      5.10803     -1.00014     23.25266        -0.009702     -0.012152      0.006441
      4.76110     -1.15916     21.79466        -0.003618      0.002187     -0.026590
      6.27802      2.62123     21.40047        -0.018398      0.014461     -0.000427
      6.43855     -1.04893     23.41486        -0.009979      0.001503     -0.015334
      4.56444     -1.97591     24.01768         0.003037      0.007762     -0.001944
      4.65219      0.17621     23.70834        -0.001271     -0.001954     -0.013047
      5.26693     -2.24908     21.23285        -0.009814     -0.004105     -0.004925
      3.47145     -1.01351     21.52132         0.009561     -0.006763      0.005460
      7.35854      2.19401     21.33701         0.006002      0.002338     -0.013876
      5.19500      3.04333     21.45708         0.007410      0.003030     -0.003661
    total drift:                                0.002236     -0.199951      0.264154

  FREE ENERGIE OF THE ION-ELECTRON SYSTEM (eV)
  free  energy   TOTEN  =     -1312.92626321 eV

  energy  without entropy=    -1312.90287025  energy(sigma->0) =    -1312.91456673

 writing wavefunctions

 total charge

[...]

 magnetization (x)

# of ion       s       p       d       tot
    1        0.000   0.000   0.000   0.000
    2       -0.000  -0.000   0.000  -0.000
    3        0.000   0.000   0.000   0.000
    4        0.000   0.000   0.000   0.000
    5        0.000   0.000   0.000   0.000
    6        0.000   0.000   0.000   0.000
    7        0.000   0.000   0.000   0.000
    8        0.000   0.000   0.000   0.000
    9        0.000  -0.000   0.000   0.000
   10       -0.000   0.000   0.000   0.000
   11        0.000   0.000   0.000   0.000
   12        0.000   0.000   0.000   0.000
   13        0.000   0.000   0.000   0.000
   14        0.000   0.000   0.000   0.000
   15        0.000   0.000   0.000   0.000
   16        0.000   0.000   0.000   0.000
   17        0.000   0.000   0.000   0.000
   18       -0.000  -0.000   0.000  -0.000
   19        0.000   0.000   0.000   0.000
   20       -0.000   0.000   0.000   0.000
   21        0.000   0.000   0.000   0.000
   22        0.000   0.000   0.000   0.000
   23        0.000   0.000   0.000   0.000
   24        0.000   0.000   0.000   0.000
   25        0.000   0.000   0.000   0.000
   26       -0.000  -0.000   0.000  -0.000
   27        0.000  -0.000   0.000  -0.000
   28        0.000  -0.000   0.000   0.000
   29        0.000   0.000   0.000   0.000
   30        0.000   0.000   0.000   0.000
   31        0.000   0.000   0.000   0.000
   32        0.000   0.000   0.000   0.000
   33       -0.000   0.000   0.000   0.000
   34        0.000   0.000   0.000   0.000
   35        0.000   0.000   0.000   0.000
   36       -0.000  -0.000   0.000  -0.000
   37       -0.000  -0.000   0.000  -0.000
   38        0.000   0.000   0.000   0.000
   39        0.000   0.000   0.000   0.000
   40        0.000   0.000   0.000   0.000
   41        0.000   0.000   0.000   0.000
   42        0.000   0.000   0.000   0.000
   43       -0.000  -0.000   0.000  -0.000
   44       -0.000  -0.000   0.000  -0.000
   45       -0.000  -0.000   0.000  -0.000
   46       -0.000  -0.000   0.000  -0.000
   47        0.000   0.000   0.000   0.000
   48        0.000   0.000   0.000   0.000
   49        0.000   0.000   0.000   0.000
   50       -0.000   0.000   0.000   0.000
   51        0.000   0.000   0.000   0.000
   52       -0.000   0.000   0.000   0.000
   53       -0.000   0.000   0.000   0.000
   54       -0.000  -0.000   0.000  -0.000
   55        0.000   0.000   0.000   0.000
   56        0.000   0.000   0.000   0.000
   57       -0.000   0.000   0.000   0.000
   58       -0.000   0.000   0.000   0.000
   59        0.000   0.000   0.000   0.000
   60        0.000   0.000   0.000   0.000
[...]
  124       -0.000  -0.000   0.000  -0.000
  125       -0.000  -0.000   0.000  -0.000
  126       -0.000  -0.000   0.000  -0.000
  127       -0.000  -0.000   0.000  -0.000
  128        0.000   0.000   0.000   0.000
  129        0.004   0.011   0.000   0.015
  130        0.070   0.377   0.000   0.447
  131       -0.000   0.000   0.000   0.000
  132       -0.000  -0.000   0.000  -0.001
  133        0.001   0.030   0.000   0.031
  134       -0.000  -0.000   0.000  -0.001
  135        0.003   0.077   0.000   0.079
  136        0.003   0.077   0.000   0.080
  137        0.000   0.000   0.000   0.000
  138        0.000   0.000   0.000   0.000
tot          0.081   0.570   0.000   0.651