 vasp.5.4.4.18Apr17-6-g9f103f2a35 (build Jun 11 2020 13:42:08) complex

 executed on             LinuxIFC date 2020.12.14  11:09:26

 INCAR:
 POTCAR:    PAW_PBE B 06Sep2000
 POTCAR:    PAW_PBE N 08Apr2002
 POTCAR:    PAW_PBE C 08Apr2002
 POTCAR:    PAW_PBE F 08Apr2002
 POTCAR:    PAW_PBE O 08Apr2002

 POTCAR:    PAW_PBE B 06Sep2000
   VRHFIN =B: s2p1

   TITEL  = PAW_PBE B 06Sep2000
   POMASS =   10.811; ZVAL   =    3.000    mass and valenz
   ENMAX  =  318.614; ENMIN  =  238.960 eV

 POTCAR:    PAW_PBE N 08Apr2002
   VRHFIN =N: s2p3

   TITEL  = PAW_PBE N 08Apr2002
   POMASS =   14.001; ZVAL   =    5.000    mass and valenz
   ENMAX  =  400.000; ENMIN  =  300.000 eV

 POTCAR:    PAW_PBE C 08Apr2002
   VRHFIN =C: s2p2

[...]

 POTCAR:    PAW_PBE F 08Apr2002
   VRHFIN =F: s2p5

[...]

 POTCAR:    PAW_PBE O 08Apr2002
   VRHFIN =O: s2p4

   TITEL  = PAW_PBE O 08Apr2002
   POMASS =   16.000; ZVAL   =    6.000    mass and valenz
   ENMAX  =  400.000; ENMIN  =  300.000 eV

 Optimization of the real space projectors (new method)

 maximal supplied QI-value         = 22.11
 optimisation between [QCUT,QGAM] = [ 11.94, 23.88] = [ 39.92,159.67] Ry
 Optimized for a Real-space Cutoff    1.18 Angstroem

   l    n(q)    QCUT    max X(q) W(low)/X(q) W(high)/X(q)  e(spline)
   0      8    11.939    53.033    0.11E-03    0.34E-03    0.60E-07
   0      8    11.939    34.740    0.11E-03    0.34E-03    0.59E-07
   1      8    11.939    30.949    0.22E-03    0.20E-03    0.17E-06
   1      8    11.939    19.518    0.20E-03    0.18E-03    0.16E-06
 Optimization of the real space projectors (new method)

[...]

   l    n(q)    QCUT    max X(q) W(low)/X(q) W(high)/X(q)  e(spline)
   0      8    11.883    14.049    0.56E-04    0.86E-04    0.22E-06
   0      8    11.883     8.945    0.81E-04    0.11E-03    0.30E-06
   1      8    11.883     7.086    0.16E-03    0.15E-04    0.31E-06
   1      8    11.883     6.747    0.15E-03    0.14E-04    0.28E-06
 Optimization of the real space projectors (new method)

 maximal supplied QI-value         = 24.76
 optimisation between [QCUT,QGAM] = [ 11.88, 24.01] = [ 39.54,161.47] Ry
 Optimized for a Real-space Cutoff    1.18 Angstroem

   l    n(q)    QCUT    max X(q) W(low)/X(q) W(high)/X(q)  e(spline)
   0      8    11.883    20.381    0.86E-04    0.11E-03    0.31E-06
   0      8    11.883    15.268    0.94E-04    0.12E-03    0.33E-06
   1      8    11.883     5.964    0.19E-03    0.18E-04    0.33E-06
   1      8    11.883     5.382    0.17E-03    0.20E-04    0.29E-06
  PAW_PBE B 06Sep2000                   :
  PAW_PBE N 08Apr2002                   :
  PAW_PBE C 08Apr2002                   :
  PAW_PBE F 08Apr2002                   :
  PAW_PBE O 08Apr2002                   :

 POSCAR: B N C F O
  positions in direct lattice
  velocities in cartesian coordinates

 METAGGA = SCAN     LMAXTAU =  6    LMIXTAU =  F

 VTST: version 3.1, (03/28/14)

 CHAIN: initializing optimizer

 OPT: Using VASP Conjugate-Gradient optimizer
 CHAIN: Read ICHAIN            0

 POSCAR: B N C F O
  positions in direct lattice
  velocities in cartesian coordinates

 ion  position               nearest neighbor table
   1  0.111  0.056  0.500-  42 1.45  37 1.45  43 1.45
   2  0.111  0.222  0.500-  37 1.45  38 1.45  44 1.45
   3  0.111  0.389  0.500-  38 1.45  39 1.45  45 1.45
   4  0.111  0.556  0.500-  39 1.45  46 1.45  40 1.45
   5  0.111  0.722  0.500-  40 1.45  47 1.45  41 1.45
   6  0.111  0.889  0.500-  41 1.45  48 1.45  42 1.45
   7  0.278  0.056  0.500-  48 1.45  49 1.45  43 1.45
   8  0.278  0.222  0.500-  43 1.45  44 1.45  50 1.45
   9  0.278  0.389  0.500-  44 1.45  45 1.45  51 1.45
  10  0.278  0.556  0.500-  46 1.45  52 1.45  45 1.45
  11  0.278  0.722  0.500-  53 1.45  47 1.45  46 1.45
  12  0.278  0.889  0.500-  47 1.45  54 1.45  48 1.45
  13  0.444  0.056  0.500-  54 1.45  55 1.45  49 1.45
  14  0.444  0.222  0.500-  49 1.45  56 1.45  50 1.45
  15  0.444  0.389  0.500-  57 1.45  50 1.45  51 1.45
  16  0.444  0.556  0.500-  58 1.45  52 1.45  51 1.45
  17  0.444  0.722  0.500-  59 1.45  53 1.45  52 1.45
  18  0.444  0.889  0.500-  60 1.45  54 1.45  53 1.45
  19  0.611  0.056  0.500-  61 1.45  60 1.45  55 1.45
  20  0.611  0.222  0.500-  55 1.45  62 1.45  56 1.45
  21  0.611  0.389  0.500-  63 1.45  56 1.45  57 1.45
  22  0.611  0.556  0.500-  64 1.45  58 1.45  57 1.45
  23  0.611  0.722  0.500-  65 1.45  59 1.45  58 1.45
  24  0.611  0.889  0.500-  66 1.45  60 1.45  59 1.45
  25  0.778  0.056  0.500-  66 1.45  67 1.45  61 1.45
  26  0.778  0.222  0.500-  61 1.45  68 1.45  62 1.45
  27  0.778  0.389  0.500-  69 1.45  63 1.45  62 1.45
  28  0.778  0.556  0.500-  70 1.45  64 1.45  63 1.45
  29  0.778  0.722  0.500-  71 1.45  65 1.45  64 1.45
  30  0.778  0.889  0.500-  66 1.45  72 1.45  65 1.45
  31  0.944  0.056  0.500-  72 1.45  67 1.45  37 1.45
  32  0.944  0.222  0.500-  68 1.45  67 1.45  38 1.45
  33  0.944  0.389  0.500-  68 1.45  69 1.45  39 1.45
  34  0.944  0.556  0.500-  40 1.45  70 1.45  69 1.45
  35  0.944  0.722  0.500-  70 1.45  41 1.45  71 1.45
  36  0.944  0.889  0.500-  71 1.45  42 1.45  72 1.45
  37  0.056  0.111  0.500-   2 1.45   1 1.45  31 1.45
  38  0.056  0.278  0.500-   3 1.45   2 1.45  32 1.45
  39  0.056  0.444  0.500-   3 1.45   4 1.45  33 1.45
  40  0.056  0.611  0.500-   5 1.45  34 1.45   4 1.45
  41  0.056  0.778  0.500-   6 1.45  35 1.45   5 1.45
  42  0.056  0.944  0.500-   1 1.45  36 1.45   6 1.45
  43  0.222  0.111  0.500-   8 1.45   1 1.45   7 1.45
  44  0.222  0.278  0.500-   9 1.45   8 1.45   2 1.45
  45  0.222  0.444  0.500-   9 1.45  10 1.45   3 1.45
  46  0.222  0.611  0.500-  10 1.45   4 1.45  11 1.45
  47  0.222  0.778  0.500-  12 1.45   5 1.45  11 1.45
  48  0.222  0.944  0.500-   7 1.45   6 1.45  12 1.45
  49  0.389  0.111  0.500-  14 1.45   7 1.45  13 1.45
  50  0.389  0.278  0.500-  15 1.45   8 1.45  14 1.45
  51  0.389  0.444  0.500-  15 1.45   9 1.45  16 1.45
  52  0.389  0.611  0.500-  16 1.45  10 1.45  17 1.45
  53  0.389  0.778  0.500-  11 1.45  17 1.45  18 1.45
  54  0.389  0.944  0.500-  13 1.45  12 1.45  18 1.45
  55  0.556  0.111  0.500-  20 1.45  13 1.45  19 1.45
  56  0.556  0.278  0.500-  14 1.45  21 1.45  20 1.45
  57  0.556  0.444  0.500-  15 1.45  21 1.45  22 1.45
  58  0.556  0.611  0.500-  16 1.45  22 1.45  23 1.45
  59  0.556  0.778  0.500-  17 1.45  23 1.45  24 1.45
  60  0.556  0.944  0.500-  18 1.45  19 1.45  24 1.45
[...]
  68  0.889  0.278  0.500-  32 1.45  33 1.45  26 1.45
  69  0.889  0.444  0.500-  27 1.45  33 1.45  34 1.45
  70  0.889  0.611  0.500-  35 1.45  28 1.45  34 1.45
  71  0.889  0.778  0.500-  36 1.45  29 1.45  35 1.45
  72  0.889  0.944  0.500-  31 1.45  30 1.45  36 1.45
  73  0.373  0.314  0.673-  76 1.33  78 1.34  77 1.34  74 1.54
  74  0.355  0.312  0.629-  80 1.33  79 1.33  73 1.54  75 1.81
  75  0.343  0.422  0.617-  82 1.21  81 1.21  74 1.81
  76  0.462  0.396  0.682-  73 1.33
  77  0.377  0.230  0.683-  73 1.34
  78  0.297  0.314  0.692-  73 1.34
  79  0.433  0.318  0.610-  74 1.33
  80  0.269  0.228  0.620-  74 1.33
  81  0.429  0.493  0.613-  75 1.21
  82  0.252  0.394  0.616-  75 1.21

IMPORTANT INFORMATION: All symmetrisations will be switched off!
NOSYMM: (Re-)initialisation of all symmetry stuff for point group C_1.

 KPOINTS: K-Point Grid

Automatic generation of k-mesh.
Space group operators:
 irot       det(A)        alpha          n_x          n_y          n_z        tau_x        tau_y        tau_z
    1     1.000000     0.000000     1.000000     0.000000     0.000000     0.000000     0.000000     0.000000

 Subroutine IBZKPT returns following result:

 Found      5 irreducible k-points:

 Following reciprocal coordinates:
            Coordinates               Weight
  0.000000  0.000000  0.000000      1.000000
  0.333333  0.000000  0.000000      2.000000
  0.000000  0.333333  0.000000      2.000000
  0.333333  0.333333  0.000000      2.000000
 -0.333333  0.333333  0.000000      2.000000

 Following cartesian coordinates:
            Coordinates               Weight
  0.000000  0.000000  0.000000      1.000000
  0.022114 -0.012768  0.000000      2.000000
  0.022114  0.012768  0.000000      2.000000
  0.044229  0.000000  0.000000      2.000000
  0.000000  0.025535  0.000000      2.000000

 SYSTEM =  hBN
 POSCAR =  B N C F O

 Startparameter for this run:
   NWRITE =      2    write-flag & timer
   PREC   = accura    normal or accurate (medium, high low for compatibility)
   ISTART =      1    job   : 0-new  1-cont  2-samecut
   ICHARG =      0    charge: 1-file 2-atom 10-const
   ISPIN  =      2    spin polarized calculation?
   LNONCOLLINEAR =      F non collinear calculations
   LSORBIT =      F    spin-orbit coupling
   INIWAV =      1    electr: 0-lowe 1-rand  2-diag
   LASPH  =      T    aspherical Exc in radial PAW
   METAGGA=      F    non-selfconsistent MetaGGA calc.

 Electronic Relaxation 1
   ENCUT  =  550.0 eV  40.42 Ry    6.36 a.u.  28.82 28.82 67.15*2*pi/ulx,y,z
   ENINI  =  550.0     initial cutoff
   ENAUG  =  644.9 eV  augmentation charge cutoff
   NELM   =    100;   NELMIN=  2; NELMDL=  0     # of ELM steps
   EDIFF  = 0.1E-04   stopping-criterion for ELM
   LREAL  =      T    real-space projection
   NLSPLINE    = F    spline interpolate recip. space projectors
   LCOMPAT=      F    compatible to vasp.4.4
   GGA_COMPAT  = T    GGA compatible to vasp.4.4-vasp.4.6
   LMAXPAW     = -100 max onsite density
   LMAXMIX     =    2 max onsite mixed and CHGCAR
   VOSKOWN=      0    Vosko Wilk Nusair interpolation
   ROPT   =   -0.00025  -0.00025  -0.00025  -0.00025
   ROPT   =   -0.00025
 Ionic relaxation
   EDIFFG = -.5E-01   stopping-criterion for IOM
   NSW    =      0    number of steps for IOM
   NBLOCK =      1;   KBLOCK =      1    inner block; outer block
   IBRION =     -1    ionic relax: 0-MD 1-quasi-New 2-CG
   NFREE  =      1    steps in history (QN), initial steepest desc. (CG)
   ISIF   =      2    stress and relaxation
   IWAVPR =     10    prediction:  0-non 1-charg 2-wave 3-comb
   ISYM   =      0    0-nonsym 1-usesym 2-fastsym
   LCORR  =      T    Harris-Foulkes like correction to forces

   POTIM  = 0.5000    time-step for ionic-motion
   TEIN   =    0.0    initial temperature
   TEBEG  =    0.0;   TEEND  =   0.0 temperature during run
   SMASS  =  -3.00    Nose mass-parameter (am)
   estimated Nose-frequenzy (Omega)   =  0.10E-29 period in steps =****** mass=  -0.519E-26a.u.
   SCALEE = 1.0000    scale energy and forces
   NPACO  =    256;   APACO  = 16.0  distance and # of slots for P.C.
   PSTRESS=    0.0 pullay stress

  Mass of Ions in am
   POMASS =  10.81 14.00 12.01 19.00 16.00
  Ionic Valenz
   ZVAL   =   3.00  5.00  4.00  7.00  6.00
  Atomic Wigner-Seitz radii
  virtual crystal weights
   VCA    =   1.00  1.00  1.00  1.00  1.00
   NELECT =     345.9000    total number of electrons
   NUPDOWN=      -1.0000    fix difference up-down

 DOS related values:
   EMIN   = -10.00;   EMAX   =  5.00  energy-range for DOS
   EFERMI =   0.00
   ISMEAR =     0;   SIGMA  =   0.05  broadening in eV -4-tet -1-fermi 0-gaus

 Electronic relaxation 2 (details)
   IALGO  =     68    algorithm
   LDIAG  =      T    sub-space diagonalisation (order eigenvalues)
[...]
   -.740E+01 0.917E+01 0.477E+02   0.742E+01 -.916E+01 -.475E+02   -.180E-02 0.148E-03 0.761E-03   0.712E-03 -.117E-02 -.543E-02
   -.146E+02 0.831E+01 0.502E+02   0.146E+02 -.826E+01 -.501E+02   -.188E-02 -.703E-03 -.220E-03   0.217E-02 -.159E-02 -.596E-02
   -.119E+02 0.189E+01 0.476E+02   0.119E+02 -.184E+01 -.474E+02   -.108E-02 -.466E-03 -.574E-03   0.228E-02 -.663E-03 -.584E-02
   -.232E+01 -.254E+01 0.435E+02   0.227E+01 0.254E+01 -.433E+02   -.329E-03 -.848E-03 0.574E-03   0.738E-03 0.293E-03 -.522E-02
   0.153E+02 -.512E+01 0.500E+02   -.152E+02 0.515E+01 -.498E+02   0.310E-02 -.115E-02 0.884E-03   -.253E-02 0.476E-03 -.607E-02
   0.127E+02 -.104E+02 0.505E+02   -.126E+02 0.103E+02 -.503E+02   0.275E-02 -.254E-02 -.575E-03   -.264E-02 0.177E-02 -.650E-02
   0.319E+01 -.766E+01 0.460E+02   -.314E+01 0.759E+01 -.459E+02   0.356E-03 -.941E-03 -.697E-03   -.106E-02 0.176E-02 -.582E-02
   -.321E+01 -.712E+00 0.424E+02   0.321E+01 0.680E+00 -.423E+02   -.867E-03 -.265E-04 0.815E-03   0.332E-03 0.550E-03 -.499E-02
   -.133E+01 0.284E+01 0.422E+02   0.129E+01 -.283E+01 -.421E+02   0.484E-03 0.957E-03 0.139E-02   0.379E-03 -.382E-03 -.478E-02
   0.771E+01 0.115E+01 0.454E+02   -.772E+01 -.112E+01 -.453E+02   0.158E-02 0.962E-03 0.118E-02   -.948E-03 -.431E-03 -.520E-02
   0.399E+02 -.890E+01 0.105E+03   -.398E+02 0.899E+01 -.104E+03   0.112E-01 -.166E-02 0.228E-02   -.680E-02 0.291E-03 -.133E-01
   0.295E+02 -.291E+02 0.106E+03   -.293E+02 0.291E+02 -.106E+03   0.786E-02 -.819E-02 0.137E-01   -.610E-02 0.440E-02 -.151E-01
   0.833E+01 -.279E+02 0.871E+02   -.826E+01 0.277E+02 -.867E+02   -.576E-03 -.498E-02 0.153E-01   -.224E-02 0.561E-02 -.122E-01
   0.390E-01 -.102E+02 0.714E+02   -.559E-01 0.100E+02 -.712E+02   -.482E-03 0.904E-03 0.291E-03   -.899E-04 0.279E-02 -.878E-02
   0.806E+01 0.431E+01 0.706E+02   -.810E+01 -.433E+01 -.704E+02   0.373E-02 0.660E-03 -.175E-01   -.827E-03 -.201E-03 -.790E-02
   0.269E+02 0.679E+01 0.848E+02   -.269E+02 -.674E+01 -.846E+02   0.591E-02 0.511E-02 -.156E-01   -.377E-02 -.145E-02 -.964E-02
   0.415E+02 0.183E+02 0.130E+03   -.415E+02 -.181E+02 -.129E+03   0.229E-01 0.118E-01 0.114E-01   -.642E-02 -.405E-02 -.155E-01
   0.337E+02 -.169E+02 0.161E+03   -.336E+02 0.171E+02 -.160E+03   0.228E-01 -.573E-02 0.216E-01   -.674E-02 0.566E-03 -.232E-01
   0.597E+01 -.451E+02 0.135E+03   -.595E+01 0.451E+02 -.134E+03   0.194E-02 -.274E-01 0.198E-01   -.184E-02 0.727E-02 -.213E-01
   -.470E+01 -.310E+02 0.895E+02   0.465E+01 0.308E+02 -.892E+02   -.607E-03 -.735E-02 0.239E-01   0.984E-03 0.652E-02 -.129E-01
   0.435E+01 -.328E+01 0.731E+02   -.441E+01 0.318E+01 -.729E+02   0.219E-02 0.538E-03 -.290E-02   -.401E-04 0.183E-02 -.873E-02
   0.232E+02 0.181E+02 0.869E+02   -.233E+02 -.181E+02 -.868E+02   0.651E-02 0.293E-02 -.139E-01   -.294E-02 -.238E-02 -.963E-02
   0.175E+02 0.391E+02 0.113E+03   -.174E+02 -.391E+02 -.113E+03   0.862E-02 0.708E-02 -.161E-01   -.242E-02 -.586E-02 -.127E-01
   0.654E+01 0.288E+02 0.170E+03   -.642E+01 -.286E+02 -.170E+03   0.457E-02 0.180E-01 -.978E-02   -.179E-02 -.697E-02 -.220E-01
   -.213E+02 -.168E+02 0.172E+03   0.214E+02 0.169E+02 -.171E+03   -.210E-01 -.648E-02 -.303E-01   0.301E-02 0.469E-03 -.268E-01
   -.269E+02 -.353E+02 0.117E+03   0.268E+02 0.351E+02 -.117E+03   -.628E-02 -.147E-01 0.124E-01   0.520E-02 0.613E-02 -.185E-01
   -.106E+02 -.142E+02 0.797E+02   0.105E+02 0.140E+02 -.794E+02   -.753E-04 -.275E-02 0.112E-01   0.274E-02 0.364E-02 -.106E-01
   0.655E+01 0.149E+02 0.786E+02   -.659E+01 -.149E+02 -.785E+02   0.380E-02 0.158E-02 -.854E-02   -.292E-03 -.119E-02 -.881E-02
   0.499E+00 0.267E+02 0.833E+02   -.483E+00 -.267E+02 -.831E+02   0.101E-02 0.308E-02 -.824E-02   -.211E-04 -.327E-02 -.904E-02
   -.129E+02 0.424E+02 0.117E+03   0.130E+02 -.423E+02 -.117E+03   -.955E-02 0.570E-02 -.163E-01   0.129E-02 -.679E-02 -.134E-01
   -.394E+02 0.232E+02 0.141E+03   0.395E+02 -.230E+02 -.140E+03   -.251E-01 0.124E-01 0.166E-01   0.559E-02 -.578E-02 -.187E-01
   -.444E+02 -.861E+01 0.119E+03   0.442E+02 0.865E+01 -.118E+03   -.150E-01 0.110E-02 0.212E-01   0.804E-02 0.152E-03 -.176E-01
   -.242E+02 -.139E+02 0.844E+02   0.240E+02 0.138E+02 -.841E+02   -.405E-02 -.123E-02 0.157E-01   0.517E-02 0.262E-02 -.116E-01
   -.530E+01 0.282E+01 0.715E+02   0.524E+01 -.290E+01 -.713E+02   -.457E-03 -.246E-02 0.404E-04   0.157E-02 0.539E-03 -.835E-02
[...]
   -.478E+01 0.243E+00 0.731E+02   0.481E+01 -.299E+00 -.729E+02   -.256E-02 -.193E-02 -.742E-02   0.712E-04 0.728E-03 -.864E-02
   -.112E+02 0.616E+01 0.723E+02   0.112E+02 -.614E+01 -.720E+02   0.622E-03 0.191E-03 -.659E-02   0.171E-02 -.827E-03 -.830E-02
   -.319E+01 0.388E+01 0.727E+02   0.311E+01 -.384E+01 -.724E+02   0.183E-02 0.184E-02 -.576E-02   0.100E-02 -.928E-03 -.836E-02
   0.123E+02 -.325E+01 0.751E+02   -.123E+02 0.328E+01 -.749E+02   0.206E-02 0.121E-02 -.112E-01   -.163E-02 0.920E-04 -.881E-02
   0.353E+01 0.258E+02 -.414E+03   -.423E+01 -.244E+02 0.407E+03   0.875E+00 -.101E+01 0.826E+01   0.151E-02 -.178E-01 0.545E-01
   -.107E+02 -.425E+02 -.322E+03   0.163E+02 0.513E+02 0.330E+03   -.524E+01 -.808E+01 -.669E+01   -.233E-01 -.508E-01 0.518E-02
   -.432E+02 -.113E+03 -.309E+03   0.429E+02 0.113E+03 0.310E+03   0.593E+00 0.120E+01 -.126E+00   0.174E-01 0.358E-01 -.172E-01
   -.536E+03 0.881E+02 -.906E+03   0.595E+03 -.913E+02 0.923E+03   -.576E+02 0.360E+01 -.158E+02   0.412E-01 -.257E-01 0.543E-01
   0.246E+03 0.516E+03 -.882E+03   -.272E+03 -.566E+03 0.900E+03   0.260E+02 0.499E+02 -.158E+02   -.186E-01 -.489E-01 0.403E-01
   0.244E+03 -.365E+03 -.103E+04   -.270E+03 0.410E+03 0.107E+04   0.256E+02 -.442E+02 -.306E+02   -.225E-01 0.113E-01 0.676E-01
   -.214E+03 0.420E+03 -.306E+03   0.245E+03 -.461E+03 0.278E+03   -.289E+02 0.423E+02 0.315E+02   0.335E-01 -.128E+00 -.671E-01
   0.556E+03 0.310E+02 -.434E+03   -.614E+03 -.279E+02 0.420E+03   0.580E+02 -.153E+01 0.161E+02   -.133E+00 -.460E-01 -.367E-01
   -.452E+03 -.128E+03 -.438E+03   0.511E+03 0.119E+03 0.433E+03   -.569E+02 0.967E+01 0.665E+01   0.731E-01 0.203E-01 -.293E-01
   0.204E+03 -.437E+03 -.477E+03   -.249E+03 0.478E+03 0.478E+03   0.433E+02 -.390E+02 0.135E+01   -.283E-01 0.699E-01 -.238E-01
   -.569E+01 -.127E+02 0.588E+01   0.114E-12 0.000E+00 0.165E-11   0.572E+01 0.128E+02 -.519E+01   -.588E-01 -.180E+00 -.665E+00

 POSITION                                       TOTAL-FORCE (eV/Angst)
      1.25595     -0.72485     17.55803         0.001603     -0.000193      0.000287
      2.51205      1.45080     17.55675        -0.001252      0.003168      0.000219
      3.76820      3.62633     17.55589         0.001863      0.002481     -0.000275
      5.02446      5.80189     17.55612         0.000604      0.001492     -0.000139
      6.28054      7.97756     17.55806         0.000070      0.000149     -0.000035
      7.53655     10.15310     17.55897         0.001994      0.004948      0.001520
      2.51215     -2.90071     17.55888         0.001367      0.003395      0.000090
      3.76799     -0.72504     17.55665         0.003114     -0.001065      0.001515
      5.02420      1.45077     17.55568         0.006948      0.005586     -0.001550
      6.28054      3.62630     17.55578         0.001807      0.004034     -0.000986
      7.53662      5.80190     17.55644        -0.001119      0.000392     -0.000183
      8.79266      7.97750     17.55866         0.000472      0.001367     -0.000524
      3.76828     -5.07634     17.55908         0.001402      0.003585      0.001938
      5.02436     -2.90102     17.55920         0.003443      0.014364      0.002755
      6.28080     -0.72522     17.55710        -0.002269      0.000696      0.002350
      7.53686      1.45074     17.55699         0.002280      0.003864      0.001717
      8.79277      3.62631     17.55609        -0.000162      0.001367     -0.000285
     10.04878      5.80192     17.55754        -0.000134      0.000694     -0.000219
      5.02444     -7.25182     17.55854         0.000054      0.001440      0.000348
      6.28049     -5.07634     17.55903         0.002011      0.004587      0.001888
      7.53672     -2.90073     17.55802        -0.000863      0.003079      0.001095
      8.79288     -0.72487     17.55661        -0.001918     -0.000715      0.001139
     10.04886      1.45077     17.55624         0.000021      0.001894     -0.000240
     11.30487      3.62641     17.55710         0.000052      0.000311     -0.000313
      6.28052     -9.42733     17.55815         0.000903      0.001497      0.000239
      7.53665     -7.25178     17.55825         0.001208      0.003060      0.000725
      8.79283     -5.07612     17.55819        -0.001766     -0.000679      0.000255
     10.04889     -2.90044     17.55751        -0.001238     -0.000984      0.000146
     11.30492     -0.72480     17.55723        -0.000682     -0.000643     -0.000082
     12.56098      1.45086     17.55768         0.000040     -0.000547     -0.000478
      7.53653    -11.60291     17.55797         0.001481      0.000887      0.000124
      8.79268     -9.42725     17.55707         0.000996     -0.001755      0.000254
     10.04889     -7.25171     17.55700         0.000344     -0.000277     -0.000329
     11.30501     -5.07610     17.55784        -0.001650     -0.000300     -0.000590
     12.56100     -2.90052     17.55841        -0.000046      0.001871      0.000707
     13.81701     -0.72488     17.55852         0.001712      0.001616      0.000384
      1.25613      0.72558     17.55756         0.000461     -0.001512      0.000032
      2.51225      2.90112     17.55619        -0.000630     -0.000460      0.001873
      3.76840      5.07669     17.55582        -0.001499      0.000914      0.001718
      5.02449      7.25236     17.55730        -0.000303     -0.000568     -0.000356
      6.28051      9.42800     17.55897        -0.000016     -0.001137     -0.002580
      7.53657     11.60363     17.55895        -0.000715     -0.001060     -0.002424
      2.51214     -1.45015     17.55776         0.000357     -0.000380      0.001212
      3.76845      0.72545     17.55682        -0.006054     -0.001813      0.001157
      5.02445      2.90099     17.55559        -0.002736     -0.000366      0.003192
      6.28052      5.07665     17.55537         0.000704      0.000544      0.002933
      7.53661      7.25232     17.55779         0.000203      0.000319     -0.000727
      8.79269      9.42794     17.55927        -0.000576     -0.000711     -0.002077
      3.76837     -3.62574     17.55966        -0.004299     -0.005267     -0.002550
      5.02440     -1.44993     17.55916        -0.000477     -0.010411     -0.001391
      6.28048      0.72536     17.55934        -0.004626      0.002048     -0.001626
      7.53655      2.90103     17.55617         0.001836     -0.001150      0.002445
      8.79267      5.07671     17.55631         0.001477     -0.000461      0.000837
     10.04876      7.25234     17.55866         0.000562     -0.000364     -0.001741
      5.02440     -5.80141     17.55911         0.000410      0.000185     -0.001644
      6.28050     -3.62571     17.55938         0.000935     -0.005438     -0.001883
      7.53662     -1.45014     17.55704         0.003418     -0.001514      0.002749
      8.79267      0.72552     17.55606         0.001147     -0.000674      0.003762
     10.04878      2.90115     17.55596         0.001035     -0.000073      0.001942
     11.30487      5.07682     17.55770         0.000490     -0.002062     -0.000281
[...]
      8.79279     -7.97688     17.55725        -0.000882     -0.001387      0.000133
     10.04890     -5.80130     17.55786         0.000507     -0.000642     -0.001495
     11.30493     -3.62568     17.55809         0.000667     -0.000665     -0.001091
     12.56096     -1.45006     17.55819         0.000530     -0.000491     -0.000902
     13.81706      0.72561     17.55836        -0.000043     -0.001246     -0.001675
      5.17947     -0.77838     23.62511         0.011809      0.008203     -0.031052
      5.02689     -0.56138     22.10381        -0.002759      0.024928      0.034666
      5.76674      1.03605     21.67055        -0.000645     -0.054129      0.010193
      6.46924     -0.85406     23.95977        -0.001167      0.020360     -0.020801
      4.57664     -1.92797     23.96938         0.007083      0.012975     -0.016370
      4.60258      0.22451     24.29332         0.003409      0.017539     -0.010990
      5.66178     -1.50945     21.42463         0.010502     -0.012102     -0.007506
      3.74315     -0.54209     21.76662        -0.004573      0.000861     -0.002086
      6.95214      0.83695     21.53300        -0.035025     -0.024763      0.014854
      4.87217      1.84724     21.64302        -0.006597     -0.015426      0.020703
    total drift:                               -0.034013     -0.072800      0.024309

  FREE ENERGIE OF THE ION-ELECTRON SYSTEM (eV)
  free  energy   TOTEN  =      -771.95864907 eV

  energy  without entropy=     -771.91733624  energy(sigma->0) =     -771.93799266

 stress matrix after NEB project (eV)
    -28.67103      0.49820      0.39891
      0.49817    -27.87594      0.37184
      0.39746      0.37198     -0.65893
  FORCES: max atom, RMS     0.055084    0.012062
  FORCE total and by dimension    0.109226    0.054129
  Stress total and by dimension   40.007755   28.671034

 total charge

[...]

 magnetization (x)

# of ion       s       p       d       tot
    1       -0.000  -0.000   0.000  -0.000
    2       -0.000  -0.000   0.000  -0.000
    3       -0.000  -0.000   0.000  -0.000
    4       -0.000  -0.000   0.000  -0.000
    5       -0.000  -0.000   0.000  -0.000
    6       -0.000  -0.000   0.000  -0.000
    7       -0.000  -0.000   0.000  -0.000
    8       -0.000  -0.000   0.000  -0.000
    9       -0.000  -0.000   0.000  -0.000
   10       -0.000  -0.000   0.000  -0.000
   11       -0.000  -0.000   0.000  -0.000
   12       -0.000  -0.000   0.000  -0.000
   13       -0.000  -0.000   0.000  -0.000
   14       -0.000  -0.000   0.000  -0.000
   15       -0.000  -0.000   0.000  -0.000
   16       -0.000  -0.000   0.000  -0.000
   17       -0.000  -0.000   0.000  -0.000
   18       -0.000  -0.000   0.000  -0.000
   19       -0.000  -0.000   0.000  -0.000
   20       -0.000  -0.000   0.000  -0.000
   21       -0.000  -0.000   0.000  -0.000
   22       -0.000  -0.000   0.000  -0.000
   23       -0.000  -0.000   0.000  -0.000
   24       -0.000  -0.000   0.000  -0.000
   25       -0.000  -0.000   0.000  -0.000
   26       -0.000  -0.000   0.000  -0.000
   27       -0.000  -0.000   0.000  -0.000
   28       -0.000  -0.000   0.000  -0.000
   29       -0.000  -0.000   0.000  -0.000
   30       -0.000  -0.000   0.000  -0.000
   31       -0.000  -0.000   0.000  -0.000
   32       -0.000  -0.000   0.000  -0.000
   33       -0.000  -0.000   0.000  -0.000
   34       -0.000  -0.000   0.000  -0.000
   35       -0.000  -0.000   0.000  -0.000
   36       -0.000  -0.000   0.000  -0.000
   37        0.000   0.000   0.000   0.000
   38        0.000   0.000   0.000   0.000
   39        0.000   0.000   0.000   0.000
   40        0.000   0.000   0.000   0.000
   41        0.000   0.000   0.000   0.000
   42        0.000   0.000   0.000   0.000
   43        0.000   0.000   0.000   0.000
   44        0.000   0.000   0.000   0.000
   45        0.000   0.001   0.000   0.001
   46        0.000   0.000   0.000   0.000
   47        0.000   0.000   0.000   0.000
   48        0.000   0.000   0.000   0.000
   49        0.000   0.000   0.000   0.000
   50        0.000   0.000   0.000   0.000
   51        0.000   0.000   0.000   0.000
   52        0.000   0.000   0.000   0.000
   53        0.000   0.000   0.000   0.000
   54        0.000   0.000   0.000   0.000
   55        0.000   0.000   0.000   0.000
   56        0.000   0.000   0.000   0.000
   57        0.000   0.000   0.000   0.000
   58        0.000   0.000   0.000   0.000
   59        0.000   0.000   0.000   0.000
   60        0.000   0.000   0.000   0.000
[...]
   68        0.000   0.000   0.000   0.000
   69        0.000   0.000   0.000   0.000
   70        0.000   0.000   0.000   0.000
   71        0.000   0.000   0.000   0.000
   72        0.000   0.000   0.000   0.000
   73        0.005   0.013   0.000   0.018
   74        0.032   0.173   0.000   0.205
   75       -0.014  -0.024   0.000  -0.038
   76       -0.000   0.000   0.000   0.000
   77        0.000   0.017   0.000   0.018
   78       -0.000  -0.001   0.000  -0.001
   79        0.001   0.045   0.000   0.046
   80        0.001   0.043   0.000   0.044
   81        0.003   0.179   0.000   0.182
   82        0.002   0.171   0.000   0.174
tot          0.030   0.628   0.000   0.659