 vasp.5.4.4.18Apr17-6-g9f103f2a35 (build May 01 2020 14:57:12) complex

 executed on             LinuxIFC date 2021.01.26  21:37:50

 INCAR:
 POTCAR:    PAW_PBE B 06Sep2000
 POTCAR:    PAW_PBE N 08Apr2002
 POTCAR:    PAW_PBE O 08Apr2002
 POTCAR:    PAW_PBE B 06Sep2000
   VRHFIN =B: s2p1

   TITEL  = PAW_PBE B 06Sep2000
   POMASS =   10.811; ZVAL   =    3.000    mass and valenz
   ENMAX  =  318.614; ENMIN  =  238.960 eV

 POTCAR:    PAW_PBE N 08Apr2002
   VRHFIN =N: s2p3

   TITEL  = PAW_PBE N 08Apr2002
   POMASS =   14.001; ZVAL   =    5.000    mass and valenz
   ENMAX  =  400.000; ENMIN  =  300.000 eV

 POTCAR:    PAW_PBE O 08Apr2002
   VRHFIN =O: s2p4

   TITEL  = PAW_PBE O 08Apr2002
   POMASS =   16.000; ZVAL   =    6.000    mass and valenz
   ENMAX  =  400.000; ENMIN  =  300.000 eV

 Optimization of the real space projectors (new method)

 maximal supplied QI-value         = 22.11
 optimisation between [QCUT,QGAM] = [ 11.94, 23.88] = [ 39.92,159.67] Ry
 Optimized for a Real-space Cutoff    1.18 Angstroem

   l    n(q)    QCUT    max X(q) W(low)/X(q) W(high)/X(q)  e(spline)
   0      8    11.939    53.033    0.11E-03    0.34E-03    0.60E-07
   0      8    11.939    34.740    0.11E-03    0.34E-03    0.59E-07
   1      8    11.939    30.949    0.22E-03    0.20E-03    0.17E-06
   1      8    11.939    19.518    0.20E-03    0.18E-03    0.16E-06
 Optimization of the real space projectors (new method)

[...]

   l    n(q)    QCUT    max X(q) W(low)/X(q) W(high)/X(q)  e(spline)
   0     10    11.813    79.467    0.48E-04    0.30E-04    0.67E-06
   0     10    11.813    66.151    0.47E-04    0.30E-04    0.67E-06
   1     10    11.813    20.169    0.11E-03    0.17E-03    0.11E-05
   1     10    11.813    14.454    0.11E-03    0.17E-03    0.11E-05
 Optimization of the real space projectors (new method)

 maximal supplied QI-value         = 24.76
 optimisation between [QCUT,QGAM] = [ 11.88, 24.01] = [ 39.54,161.47] Ry
 Optimized for a Real-space Cutoff    1.18 Angstroem

   l    n(q)    QCUT    max X(q) W(low)/X(q) W(high)/X(q)  e(spline)
   0      8    11.883    20.381    0.86E-04    0.11E-03    0.31E-06
   0      8    11.883    15.268    0.94E-04    0.12E-03    0.33E-06
   1      8    11.883     5.964    0.19E-03    0.18E-04    0.33E-06
   1      8    11.883     5.382    0.17E-03    0.20E-04    0.29E-06
  PAW_PBE B 06Sep2000                   :
  PAW_PBE N 08Apr2002                   :
  PAW_PBE O 08Apr2002                   :

 POSCAR: B N O
  positions in direct lattice
  velocities in cartesian coordinates
 exchange correlation table for  LEXCH =        8
   RHO(1)=    0.500       N(1)  =     2000
   RHO(2)=  100.500       N(2)  =     4000

 ion  position               nearest neighbor table
   1  0.167  0.083  0.500-  21 1.45  17 1.45  20 1.45
   2  0.167  0.335  0.500-  18 1.44  17 1.45  22 1.47
   3  0.167  0.582  0.500-  18 1.44  19 1.45  23 1.47
   4  0.167  0.833  0.500-  24 1.45  19 1.45  20 1.45
   5  0.417  0.083  0.500-  25 1.45  21 1.46  24 1.46
   6  0.418  0.335  0.500-  32 1.44  21 1.45  22 1.47
   7  0.418  0.833  0.500-  27 1.44  24 1.45  23 1.47
   8  0.667  0.084  0.500-  27 1.45  28 1.45  25 1.45
   9  0.667  0.333  0.500-  32 1.45  29 1.45  25 1.45
  10  0.665  0.582  0.500-  32 1.44  30 1.45  26 1.47
  11  0.665  0.833  0.500-  27 1.44  31 1.45  26 1.47
  12  0.917  0.083  0.500-  28 1.45  31 1.46  17 1.46
  13  0.916  0.333  0.500-  18 1.45  28 1.45  29 1.45
  14  0.917  0.583  0.500-  29 1.45  30 1.46  19 1.46
  15  0.917  0.833  0.500-  30 1.45  31 1.45  20 1.45
  16  0.417  0.583  0.500-  22 1.41  26 1.41  23 1.41
  17  0.085  0.168  0.500-   1 1.45   2 1.45  12 1.46
  18  0.083  0.417  0.500-   3 1.44   2 1.44  13 1.45
  19  0.085  0.667  0.500-   4 1.45   3 1.45  14 1.46
  20  0.083  0.917  0.500-   4 1.45  15 1.45   1 1.45
  21  0.333  0.168  0.500-   1 1.45   6 1.45   5 1.46
  22  0.336  0.421  0.500-  16 1.41   2 1.47   6 1.47
  23  0.336  0.664  0.500-  16 1.41   3 1.47   7 1.47
  24  0.333  0.915  0.500-   4 1.45   7 1.45   5 1.46
  25  0.583  0.167  0.500-   5 1.45   8 1.45   9 1.45
  26  0.579  0.664  0.500-  16 1.41  11 1.47  10 1.47
  27  0.583  0.917  0.500-   7 1.44  11 1.44   8 1.45
  28  0.833  0.167  0.500-  12 1.45   8 1.45  13 1.45
  29  0.833  0.417  0.500-  14 1.45  13 1.45   9 1.45
  30  0.832  0.667  0.500-  15 1.45  10 1.45  14 1.46
  31  0.832  0.915  0.500-  15 1.45  11 1.45  12 1.46
  32  0.583  0.417  0.500-   6 1.44  10 1.44   9 1.45
  33  0.401  0.469  0.626-  34 1.28
  34  0.528  0.596  0.626-  33 1.28

  LATTYP: Found a hexagonal cell.
 ALAT       =    10.0487671536
 C/A-ratio  =     3.4944251219

  Lattice vectors:

 A1 = (   5.0243667045,  -8.7024973730,   0.0000000000)
 A2 = (   5.0243667045,   8.7024973730,   0.0000000000)
 A3 = (   0.0000000000,   0.0000000000,  35.1146643856)

Analysis of symmetry for initial positions (statically):
 Subroutine PRICEL returns:
 Original cell was already a primitive cell.

 Routine SETGRP: Setting up the symmetry group for a
 hexagonal supercell.

 Subroutine GETGRP returns: Found  1 space group operations
 (whereof  1 operations were pure point group operations)
 out of a pool of 24 trial point group operations.

The static configuration has the point symmetry C_1 .

Analysis of symmetry for dynamics (positions and initial velocities):
 Subroutine PRICEL returns:
 Original cell was already a primitive cell.

[...]

The dynamic configuration has the point symmetry C_1 .

Analysis of constrained symmetry for selective dynamics:
 Subroutine PRICEL returns:
 Original cell was already a primitive cell.

[...]

The constrained configuration has the point symmetry C_1 .

Analysis of structural, dynamic, and magnetic symmetry:
 Subroutine PRICEL returns:
 Original cell was already a primitive cell.

 Routine SETGRP: Setting up the symmetry group for a
 hexagonal supercell.

 Subroutine GETGRP returns: Found  1 space group operations
 (whereof  1 operations were pure point group operations)
 out of a pool of 24 trial point group operations.

The magnetic configuration has the point symmetry C_1 .

 Subroutine INISYM returns: Found  1 space group operations
 (whereof  1 operations are pure point group operations),
 and found     1 'primitive' translations

 KPOINTS: K-Point Grid

Automatic generation of k-mesh.
Space group operators:
 irot       det(A)        alpha          n_x          n_y          n_z        tau_x        tau_y        tau_z
    1     1.000000     0.000000     1.000000     0.000000     0.000000     0.000000     0.000000     0.000000

 Subroutine IBZKPT returns following result:

 Found     24 irreducible k-points:

 Following reciprocal coordinates:
            Coordinates               Weight
  0.125000  0.125000  0.000000     16.000000
  0.250000 -0.125000  0.000000     16.000000
  0.125000 -0.250000  0.000000     16.000000
  0.375000  0.125000  0.000000     16.000000
  0.500000 -0.375000  0.000000     16.000000
  0.125000  0.500000  0.000000     16.000000
 -0.125000 -0.375000  0.000000     16.000000
  0.375000  0.500000  0.000000     16.000000
  0.500000 -0.125000  0.000000     16.000000
 -0.375000  0.125000  0.000000     16.000000
 -0.250000  0.375000  0.000000     16.000000
  0.125000  0.250000  0.000000     16.000000
 -0.125000  0.375000  0.000000     16.000000
 -0.375000  0.250000  0.000000     16.000000
 -0.250000 -0.125000  0.000000     16.000000
 -0.125000  0.125000  0.000000     16.000000
  0.000000  0.125000  0.000000     16.000000
  0.125000  0.000000  0.000000     16.000000
  0.375000  0.375000  0.000000     16.000000
 -0.250000 -0.375000  0.000000     16.000000
  0.375000  0.250000  0.000000     16.000000
 -0.375000  0.375000  0.000000     16.000000
  0.000000  0.375000  0.000000     16.000000
  0.375000  0.000000  0.000000     16.000000

 Following cartesian coordinates:
            Coordinates               Weight
  0.024879  0.000000  0.000000     16.000000
  0.012439 -0.021546  0.000000     16.000000
 -0.012439 -0.021546  0.000000     16.000000
  0.049758 -0.014364  0.000000     16.000000
  0.012439 -0.050273  0.000000     16.000000
  0.062197  0.021546  0.000000     16.000000
 -0.049758 -0.014364  0.000000     16.000000
  0.087076  0.007182  0.000000     16.000000
  0.037318 -0.035909  0.000000     16.000000
 -0.024879  0.028727  0.000000     16.000000
  0.012439  0.035909  0.000000     16.000000
  0.037318  0.007182  0.000000     16.000000
  0.024879  0.028727  0.000000     16.000000
 -0.012439  0.035909  0.000000     16.000000
 -0.037318  0.007182  0.000000     16.000000
  0.000000  0.014364  0.000000     16.000000
  0.012439  0.007182  0.000000     16.000000
  0.012439 -0.007182  0.000000     16.000000
  0.074636  0.000000  0.000000     16.000000
 -0.062197 -0.007182  0.000000     16.000000
  0.062197 -0.007182  0.000000     16.000000
  0.000000  0.043091  0.000000     16.000000
  0.037318  0.021546  0.000000     16.000000
  0.037318 -0.021546  0.000000     16.000000

 SYSTEM =  SiC
 POSCAR =  B N O

 Startparameter for this run:
   NWRITE =      2    write-flag & timer
   PREC   = accura    normal or accurate (medium, high low for compatibility)
   ISTART =      1    job   : 0-new  1-cont  2-samecut
   ICHARG =      0    charge: 1-file 2-atom 10-const
   ISPIN  =      2    spin polarized calculation?
   LNONCOLLINEAR =      F non collinear calculations
   LSORBIT =      F    spin-orbit coupling
   INIWAV =      1    electr: 0-lowe 1-rand  2-diag
   LASPH  =      F    aspherical Exc in radial PAW
   METAGGA=      F    non-selfconsistent MetaGGA calc.

 Electronic Relaxation 1
   ENCUT  =  550.0 eV  40.42 Ry    6.36 a.u.  19.22 19.22 67.15*2*pi/ulx,y,z
   ENINI  =  550.0     initial cutoff
   ENAUG  =  627.1 eV  augmentation charge cutoff
   NELM   =    100;   NELMIN=  2; NELMDL=  0     # of ELM steps
   EDIFF  = 0.1E-04   stopping-criterion for ELM
   LREAL  =      T    real-space projection
   NLSPLINE    = F    spline interpolate recip. space projectors
   LCOMPAT=      F    compatible to vasp.4.4
   GGA_COMPAT  = T    GGA compatible to vasp.4.4-vasp.4.6
   LMAXPAW     = -100 max onsite density
   LMAXMIX     =    2 max onsite mixed and CHGCAR
   VOSKOWN=      0    Vosko Wilk Nusair interpolation
   ROPT   =   -0.00025  -0.00025  -0.00025
 Ionic relaxation
   EDIFFG = -.2E-01   stopping-criterion for IOM
   NSW    =    500    number of steps for IOM
   NBLOCK =      1;   KBLOCK =    500    inner block; outer block
   IBRION =      2    ionic relax: 0-MD 1-quasi-New 2-CG
   NFREE  =      1    steps in history (QN), initial steepest desc. (CG)
   ISIF   =      2    stress and relaxation
   IWAVPR =     11    prediction:  0-non 1-charg 2-wave 3-comb
   ISYM   =      2    0-nonsym 1-usesym 2-fastsym
   LCORR  =      T    Harris-Foulkes like correction to forces

   POTIM  = 0.5000    time-step for ionic-motion
   TEIN   =    0.0    initial temperature
   TEBEG  =    0.0;   TEEND  =   0.0 temperature during run
   SMASS  =  -3.00    Nose mass-parameter (am)
   estimated Nose-frequenzy (Omega)   =  0.10E-29 period in steps =****** mass=  -0.231E-26a.u.
   SCALEE = 1.0000    scale energy and forces
   NPACO  =    256;   APACO  = 16.0  distance and # of slots for P.C.
[...]
     49     -10.0096      1.00000
     50      -9.8357      1.00000
     51      -9.8082      1.00000
     52      -9.8011      1.00000
     53      -9.5254      1.00000
     54      -9.4440      1.00000
     55      -9.4205      1.00000
     56      -9.1602      1.00000
     57      -9.0712      1.00000
     58      -8.9098      1.00000
     59      -8.3545      1.00000
     60      -7.9754      1.00000
[...]
     94       0.8062      0.00000
     95       1.0536      0.00000
     96       1.0661      0.00000
     97       1.0875      0.00000
     98       1.2135      0.00000
     99       1.2420      0.00000
    100       1.2449      0.00000
    101       1.2903      0.00000
    102       1.3387      0.00000
    103       1.3806      0.00000
    104       1.4000      0.00000
    105       1.4186      0.00000
    106       1.4436      0.00000
    107       1.5099      0.00000
    108       1.7417      0.00000

[...]

 spin component 2

[...]

 k-point    24 :       0.3750    0.0000    0.0000
  band No.  band energies     occupation
      1     -28.9484      1.00000
      2     -27.3050      1.00000
      3     -23.6105      1.00000
      4     -23.3401      1.00000
      5     -23.1791      1.00000
      6     -22.7783      1.00000
      7     -22.4035      1.00000
      8     -22.3152      1.00000
      9     -21.8911      1.00000
     10     -21.8392      1.00000
     11     -21.3303      1.00000
     12     -21.3101      1.00000
     13     -21.1432      1.00000
     14     -20.7949      1.00000
     15     -20.7304      1.00000
     16     -20.5207      1.00000
     17     -20.3827      1.00000
     18     -18.0267      1.00000
     19     -17.9923      1.00000
     20     -15.5342      1.00000
     21     -15.4644      1.00000
     22     -14.6622      1.00000
     23     -14.5479      1.00000
     24     -14.3403      1.00000
     25     -14.3019      1.00000
     26     -13.7880      1.00000
     27     -13.6280      1.00000
     28     -13.3570      1.00000
     29     -12.9830      1.00000
     30     -12.8659      1.00000
     31     -12.5535      1.00000
     32     -12.5385      1.00000
     33     -12.3170      1.00000
     34     -12.1052      1.00000
     35     -11.8319      1.00000
     36     -11.2820      1.00000
     37     -11.1641      1.00000
     38     -11.1584      1.00000
     39     -10.9480      1.00000
     40     -10.9191      1.00000
     41     -10.8954      1.00000
     42     -10.6755      1.00000
     43     -10.6003      1.00000
     44     -10.4271      1.00000
     45     -10.3869      1.00000
     46     -10.2337      1.00000
     47     -10.2085      1.00000
     48     -10.0580      1.00000
     49      -9.9162      1.00000
     50      -9.9148      1.00000
     51      -9.8968      1.00000
     52      -9.6915      1.00000
     53      -9.4698      1.00000
     54      -9.2635      1.00000
     55      -9.2350      1.00000
     56      -9.1161      1.00000
     57      -8.7739      1.00000
     58      -8.6071      1.00000
     59      -8.5900      1.00000
     60      -8.4626      1.00000
[...]
     94       0.8344      0.00000
     95       0.8615      0.00000
     96       0.9359      0.00000
     97       0.9978      0.00000
     98       1.0784      0.00000
     99       1.2202      0.00000
    100       1.3197      0.00000
    101       1.3452      0.00000
    102       1.3629      0.00000
    103       1.3887      0.00000
    104       1.5274      0.00000
    105       1.5423      0.00000
    106       1.5500      0.00000
    107       1.5673      0.00000
    108       1.6428      0.00000

 soft charge-density along one line, spin component           1
         0         1         2         3         4         5         6         7         8         9
 total charge-density along one line

 soft charge-density along one line, spin component           2
         0         1         2         3         4         5         6         7         8         9
 total charge-density along one line

------------------------ aborting loop because EDIFF is reached ----------------------------------------

 total charge

# of ion       s       p       d       tot
    1        0.739   1.413   0.000   2.152
    2        0.731   1.409   0.000   2.141
    3        0.731   1.409   0.000   2.141
    4        0.739   1.413   0.000   2.152
    5        0.732   1.390   0.000   2.122
    6        0.731   1.409   0.000   2.141
    7        0.731   1.409   0.000   2.141
    8        0.739   1.413   0.000   2.151
    9        0.739   1.413   0.000   2.151
   10        0.731   1.409   0.000   2.141
   11        0.731   1.409   0.000   2.141
   12        0.732   1.390   0.000   2.122
   13        0.739   1.413   0.000   2.151
   14        0.732   1.390   0.000   2.122
   15        0.739   1.413   0.000   2.152
   16        1.140   2.641   0.000   3.781
   17        1.219   2.776   0.000   3.996
   18        1.222   2.799   0.000   4.021
   19        1.219   2.776   0.000   3.996
   20        1.221   2.784   0.000   4.005
   21        1.219   2.776   0.000   3.996
   22        1.205   2.696   0.000   3.901
   23        1.205   2.696   0.000   3.901
   24        1.219   2.776   0.000   3.996
   25        1.222   2.788   0.000   4.010
   26        1.205   2.696   0.000   3.901
   27        1.222   2.799   0.000   4.021
   28        1.222   2.788   0.000   4.010
   29        1.222   2.788   0.000   4.010
   30        1.219   2.776   0.000   3.996
   31        1.219   2.776   0.000   3.996
   32        1.222   2.799   0.000   4.021
   33        1.595   3.291   0.000   4.887
   34        1.595   3.291   0.000   4.887
tot         34.833  74.616   0.000 109.450

 magnetization (x)

[...]

  FORCE on cell =-STRESS in cart. coord.  units (eV):
  Direction    XX          YY          ZZ          XY          YZ          ZX
  Alpha Z    34.98873    34.98873    34.98873
  Ewald   50514.26856 50112.17112-54770.30645     0.04974   -11.20198    -0.18210
  Hartree 50262.99284 50065.11146-49119.72066     0.04159   -10.75936    -0.17265
  E(xc)    -572.80150  -573.86963  -589.58193     0.00004    -0.00008    -0.00001
  Local  ************************102027.44715    -0.08990    21.96012     0.35454
  n-local  -293.59347  -293.07872  -305.60185    -0.00029    -0.00277    -0.00070
  augment    27.78364    30.98111    36.16681    -0.00011     0.00110    -0.00001
  Kinetic  2313.36830  2353.90280  2685.62249    -0.00144     0.00956     0.00019
  Fock        0.00000     0.00000     0.00000     0.00000     0.00000     0.00000
  Total      -7.80834    -7.95637    -0.98572    -0.00039     0.00660    -0.00073
  in kB      -4.07404    -4.15128    -0.51430    -0.00020     0.00344    -0.00038

 VOLUME and BASIS-vectors are now :
  energy-cutoff  :      550.00
  volume of cell :     3070.74
      direct lattice vectors                 reciprocal lattice vectors
     5.024366704 -8.702497373  0.000000000     0.099515029 -0.057454772  0.000000000
     5.024366704  8.702497373  0.000000000     0.099515029  0.057454772  0.000000000
     0.000000000  0.000000000 35.114664386     0.000000000  0.000000000  0.028478131

  length of vectors
    10.048767154 10.048767154 35.114664386     0.114909929  0.114909929  0.028478131

 FORCES acting on ions
    electron-ion (+dipol)            ewald-force                    non-local-force                 convergence-correction
   0.623E+01 0.332E+01 0.268E+02   -.626E+01 -.334E+01 -.260E+02   0.677E-01 0.392E-01 -.444E-03   -.102E-02 -.598E-03 0.237E-03
   0.173E+02 0.312E+01 0.309E+02   -.185E+02 -.246E+01 -.299E+02   0.114E+01 -.745E+00 -.222E-02   0.829E-03 0.172E-02 0.337E-03
   0.339E+01 -.175E+02 0.283E+02   -.461E+01 0.181E+02 -.274E+02   0.121E+01 -.611E+00 -.197E-02   -.805E-03 -.157E-02 0.290E-03
   0.104E-01 -.455E+01 0.249E+02   -.101E-01 0.466E+01 -.241E+02   0.495E-06 -.786E-01 -.379E-03   -.337E-06 0.102E-02 0.240E-03
   0.440E+01 -.853E-01 0.261E+02   -.415E+01 0.147E-01 -.253E+02   -.220E+00 0.127E+00 -.177E-03   0.474E-03 -.392E-03 0.224E-03
   0.140E+02 0.122E+02 0.341E+02   -.139E+02 -.136E+02 -.330E+02   -.774E-01 0.136E+01 -.219E-02   0.177E-02 -.127E-03 0.340E-03
   -.342E+01 -.175E+02 0.283E+02   0.463E+01 0.181E+02 -.274E+02   -.121E+01 -.611E+00 -.199E-02   0.806E-03 -.157E-02 0.290E-03
   -.367E+01 -.204E+01 0.254E+02   0.390E+01 0.217E+01 -.245E+02   -.196E+00 -.113E+00 -.524E-03   0.501E-03 0.287E-03 0.240E-03
   -.136E-01 0.695E+01 0.276E+02   0.132E-01 -.713E+01 -.267E+02   0.129E-05 0.226E+00 -.528E-03   0.286E-06 -.671E-03 0.216E-03
   -.141E+02 0.122E+02 0.340E+02   0.140E+02 -.135E+02 -.330E+02   0.774E-01 0.136E+01 -.226E-02   -.176E-02 -.121E-03 0.337E-03
   -.173E+02 0.314E+01 0.308E+02   0.185E+02 -.248E+01 -.298E+02   -.114E+01 -.745E+00 -.230E-02   -.834E-03 0.171E-02 0.334E-03
   0.394E-01 0.284E+01 0.258E+02   -.381E-01 -.261E+01 -.250E+02   0.254E-05 -.253E+00 -.183E-03   -.153E-05 0.676E-03 0.235E-03
   0.370E+01 -.207E+01 0.254E+02   -.392E+01 0.220E+01 -.246E+02   0.196E+00 -.113E+00 -.535E-03   -.502E-03 0.289E-03 0.240E-03
   -.440E+01 -.130E+00 0.261E+02   0.414E+01 0.585E-01 -.253E+02   0.220E+00 0.127E+00 -.172E-03   -.474E-03 -.391E-03 0.224E-03
   -.618E+01 0.330E+01 0.268E+02   0.620E+01 -.332E+01 -.259E+02   -.677E-01 0.392E-01 -.431E-03   0.102E-02 -.597E-03 0.237E-03
   -.878E-01 -.554E+01 0.620E+02   0.857E-01 0.537E+01 -.600E+02   -.293E-03 0.328E-03 -.133E+00   0.134E-04 0.736E-03 -.169E-04
   0.132E+02 0.786E+00 0.461E+02   -.137E+02 -.103E+01 -.446E+02   0.630E+00 0.188E+00 0.150E-02   -.213E-02 0.211E-03 0.331E-03
   0.206E+02 -.139E+02 0.470E+02   -.219E+02 0.146E+02 -.455E+02   0.127E+01 -.732E+00 0.571E-02   0.104E-02 -.411E-03 0.363E-03
   0.268E+01 -.946E+01 0.427E+02   -.285E+01 0.102E+02 -.414E+02   0.153E+00 -.640E+00 0.303E-03   -.104E-02 0.151E-02 0.378E-03
   0.478E-01 0.154E+01 0.421E+02   -.463E-01 -.148E+01 -.408E+02   -.615E-05 -.362E-03 0.209E-02   -.188E-05 -.856E-04 0.363E-03
   0.106E+02 0.110E+02 0.481E+02   -.110E+02 -.114E+02 -.465E+02   0.477E+00 0.452E+00 0.274E-02   -.106E-02 -.198E-02 0.282E-03
   0.704E+02 0.359E+02 0.615E+02   -.814E+02 -.423E+02 -.596E+02   0.110E+02 0.636E+01 0.411E-01   0.142E-01 0.857E-02 0.155E-03
   -.548E-01 -.829E+02 0.538E+02   0.533E-01 0.955E+02 -.522E+02   -.307E-05 -.127E+02 0.324E-01   0.314E-05 -.163E-01 0.323E-03
   -.268E+01 -.941E+01 0.427E+02   0.285E+01 0.101E+02 -.414E+02   -.153E+00 -.640E+00 0.290E-03   0.104E-02 0.151E-02 0.378E-03
   0.437E+00 0.331E+01 0.432E+02   -.368E+00 -.325E+01 -.419E+02   -.222E-01 0.123E-01 0.108E-02   0.267E-03 -.302E-03 0.332E-03
   -.705E+02 0.359E+02 0.614E+02   0.815E+02 -.423E+02 -.595E+02   -.110E+02 0.636E+01 0.414E-01   -.142E-01 0.858E-02 0.145E-03
   -.205E+02 -.138E+02 0.469E+02   0.218E+02 0.145E+02 -.454E+02   -.127E+01 -.732E+00 0.552E-02   -.105E-02 -.417E-03 0.363E-03
   0.428E-01 -.120E+01 0.419E+02   -.414E-01 0.122E+01 -.405E+02   -.232E-05 -.247E-01 0.698E-03   -.191E-05 0.386E-03 0.387E-03
   -.441E+00 0.326E+01 0.432E+02   0.373E+00 -.319E+01 -.419E+02   0.222E-01 0.123E-01 0.109E-02   -.267E-03 -.300E-03 0.332E-03
   -.106E+02 0.110E+02 0.479E+02   0.109E+02 -.113E+02 -.464E+02   -.477E+00 0.452E+00 0.258E-02   0.106E-02 -.197E-02 0.282E-03
   -.131E+02 0.790E+00 0.459E+02   0.136E+02 -.103E+01 -.445E+02   -.630E+00 0.188E+00 0.132E-02   0.212E-02 0.212E-03 0.331E-03
   -.604E-01 0.270E+02 0.551E+02   0.588E-01 -.284E+02 -.534E+02   -.191E-04 0.147E+01 0.814E-02   0.228E-05 0.826E-03 0.214E-03
   0.269E+03 0.125E+01 -.605E+03   -.314E+03 -.127E+01 0.607E+03   0.447E+02 0.159E-02 -.117E-01   0.615E-02 0.249E-03 -.391E-03
   -.269E+03 0.124E+01 -.605E+03   0.314E+03 -.126E+01 0.607E+03   -.447E+02 0.426E-03 -.117E-01   -.609E-02 0.238E-03 -.390E-03
   -.124E-04 -.443E-02 0.165E-01   -.568E-13 -.121E-12 0.000E+00   -.265E-04 0.391E-02 -.246E-01   0.693E-04 0.934E-03 0.818E-02

 POSITION                                       TOTAL-FORCE (eV/Angst)
      1.25719     -0.72458     17.55753         0.002850      0.001652      0.000051
      2.52374      1.46208     17.55770        -0.001655      0.003827     -0.003052
      3.76393      3.61018     17.55762        -0.003992     -0.000548     -0.002329
      5.02437      5.80040     17.55751         0.000001     -0.003427      0.000036
      2.51237     -2.90092     17.55750         0.000122     -0.000237      0.000348
      3.78417     -0.72103     17.55782         0.002530     -0.003511     -0.003314
      6.28481      3.61018     17.55762         0.003995     -0.000550     -0.002325
      3.77037     -5.07524     17.55746         0.008856      0.005021     -0.000051
      5.02437     -2.90322     17.55751        -0.000000     -0.010382      0.000169
      6.26457     -0.72103     17.55781        -0.002521     -0.003509     -0.003352
      7.52499      1.46208     17.55769         0.001656      0.003823     -0.003070
      5.02437     -7.25189     17.55748        -0.000001      0.000290      0.000414
      6.27837     -5.07524     17.55746        -0.008861      0.005024     -0.000059
      7.53637     -2.90092     17.55750        -0.000120     -0.000235      0.000348
      8.79155     -0.72458     17.55754        -0.002846      0.001652      0.000045
      5.02437      1.45040     17.55816         0.000003      0.000108      0.008969
      1.26974      0.72494     17.55736         0.007690      0.004075      0.000724
      2.50973      2.90224     17.55734         0.004807     -0.002746      0.002012
      3.77532      5.06476     17.55737         0.000387     -0.008555      0.000349
      5.02437      7.25207     17.55730         0.000003      0.000050      0.000263
      2.51879     -1.43846     17.55737         0.007281      0.004566      0.001051
      3.80157      0.74443     17.55680        -0.002842     -0.001522      0.001769
      5.02437      2.86239     17.55690         0.000003      0.003511      0.000270
      6.27342      5.06476     17.55737        -0.000386     -0.008557      0.000345
      3.76688     -3.62522     17.55728         0.002225     -0.001474      0.000149
      6.24718      0.74442     17.55677         0.002854     -0.001525      0.001645
      7.53901      2.90224     17.55734        -0.004807     -0.002749      0.002008
      5.02437     -5.80329     17.55728        -0.000001      0.002639      0.000099
      6.28186     -3.62522     17.55728        -0.002225     -0.001473      0.000144
      7.52995     -1.43846     17.55737        -0.007275      0.004563      0.001029
      8.77900      0.72494     17.55736        -0.007686      0.004072      0.000692
      5.02437     -1.45323     17.55739         0.000003      0.005561      0.003010
      4.36984      0.59266     21.98642        -0.011939     -0.000473     -0.003884
      5.64957      0.59270     21.98642         0.011891      0.001039     -0.004503
    total drift:                                0.000030      0.000408      0.000061

  FREE ENERGIE OF THE ION-ELECTRON SYSTEM (eV)
  free  energy   TOTEN  =      -286.37926453 eV

  energy  without entropy=     -286.34480810  energy(sigma->0) =     -286.36203631

 reached required accuracy - stopping structural energy minimisation

 total charge

[...]

 magnetization (x)

# of ion       s       p       d       tot
    1        0.000   0.000   0.000   0.000
    2       -0.000   0.000   0.000   0.000
    3       -0.000   0.000   0.000   0.000
    4        0.000   0.000   0.000   0.000
    5       -0.000   0.000   0.000   0.000
    6       -0.000   0.000   0.000   0.000
    7       -0.000   0.000   0.000   0.000
    8       -0.000   0.000   0.000   0.000
    9       -0.000   0.000   0.000   0.000
   10       -0.000   0.000   0.000   0.000
   11       -0.000   0.000   0.000   0.000
   12       -0.000   0.000   0.000   0.000
   13       -0.000   0.000   0.000   0.000
   14       -0.000   0.000   0.000   0.000
   15        0.000   0.000   0.000   0.000
   16        0.000   0.004   0.000   0.004
   17        0.000   0.000   0.000   0.000
   18        0.000   0.000   0.000   0.000
   19        0.000   0.000   0.000   0.000
   20        0.000   0.000   0.000   0.000
   21        0.000   0.000   0.000   0.000
   22        0.000   0.001   0.000   0.001
   23        0.000   0.001   0.000   0.001
   24        0.000   0.000   0.000   0.000
   25        0.000   0.000   0.000   0.000
   26        0.000   0.001   0.000   0.001
   27        0.000   0.000   0.000   0.000
   28        0.000   0.000   0.000   0.000
   29        0.000   0.000   0.000   0.000
   30        0.000   0.000   0.000   0.000
   31        0.000   0.000   0.000   0.000
   32        0.000   0.000   0.000   0.000
   33        0.008   0.631   0.000   0.639
   34        0.008   0.631   0.000   0.639
tot          0.017   1.271   0.000   1.287