 vasp.5.4.4.18Apr17-6-g9f103f2a35 (build May 01 2020 14:57:12) complex

 executed on             LinuxIFC date 2021.06.03  21:29:46

 INCAR:
 POTCAR:    PAW_PBE B 06Sep2000
 POTCAR:    PAW_PBE N 08Apr2002
 POTCAR:    PAW_PBE O 08Apr2002
 POTCAR:    PAW_PBE B 06Sep2000
   VRHFIN =B: s2p1

   TITEL  = PAW_PBE B 06Sep2000
   POMASS =   10.811; ZVAL   =    3.000    mass and valenz
   ENMAX  =  318.614; ENMIN  =  238.960 eV

 POTCAR:    PAW_PBE N 08Apr2002
   VRHFIN =N: s2p3

   TITEL  = PAW_PBE N 08Apr2002
   POMASS =   14.001; ZVAL   =    5.000    mass and valenz
   ENMAX  =  400.000; ENMIN  =  300.000 eV

 POTCAR:    PAW_PBE O 08Apr2002
   VRHFIN =O: s2p4

   TITEL  = PAW_PBE O 08Apr2002
   POMASS =   16.000; ZVAL   =    6.000    mass and valenz
   ENMAX  =  400.000; ENMIN  =  300.000 eV

 Optimization of the real space projectors (new method)

 maximal supplied QI-value         = 22.11
 optimisation between [QCUT,QGAM] = [ 11.94, 23.88] = [ 39.92,159.67] Ry
 Optimized for a Real-space Cutoff    1.18 Angstroem

   l    n(q)    QCUT    max X(q) W(low)/X(q) W(high)/X(q)  e(spline)
   0      8    11.939    53.033    0.11E-03    0.34E-03    0.60E-07
   0      8    11.939    34.740    0.11E-03    0.34E-03    0.59E-07
   1      8    11.939    30.949    0.22E-03    0.20E-03    0.17E-06
   1      8    11.939    19.518    0.20E-03    0.18E-03    0.16E-06
 Optimization of the real space projectors (new method)

[...]

   l    n(q)    QCUT    max X(q) W(low)/X(q) W(high)/X(q)  e(spline)
   0     10    11.813    79.467    0.48E-04    0.30E-04    0.67E-06
   0     10    11.813    66.151    0.47E-04    0.30E-04    0.67E-06
   1     10    11.813    20.169    0.11E-03    0.17E-03    0.11E-05
   1     10    11.813    14.454    0.11E-03    0.17E-03    0.11E-05
 Optimization of the real space projectors (new method)

 maximal supplied QI-value         = 24.76
 optimisation between [QCUT,QGAM] = [ 11.88, 24.01] = [ 39.54,161.47] Ry
 Optimized for a Real-space Cutoff    1.18 Angstroem

   l    n(q)    QCUT    max X(q) W(low)/X(q) W(high)/X(q)  e(spline)
   0      8    11.883    20.381    0.86E-04    0.11E-03    0.31E-06
   0      8    11.883    15.268    0.94E-04    0.12E-03    0.33E-06
   1      8    11.883     5.964    0.19E-03    0.18E-04    0.33E-06
   1      8    11.883     5.382    0.17E-03    0.20E-04    0.29E-06
  PAW_PBE B 06Sep2000                   :
  PAW_PBE N 08Apr2002                   :
  PAW_PBE O 08Apr2002                   :

 POSCAR: B N O
  positions in direct lattice
  velocities in cartesian coordinates

 METAGGA = SCAN     LMAXTAU =  6    LMIXTAU =  F

 ion  position               nearest neighbor table
   1  0.167  0.083  0.500-  21 1.45  17 1.45  20 1.45
   2  0.167  0.335  0.500-  18 1.44  17 1.45  22 1.47
   3  0.167  0.582  0.500-  18 1.44  19 1.45  23 1.47
   4  0.167  0.833  0.500-  24 1.45  19 1.45  20 1.45
   5  0.417  0.083  0.500-  25 1.45  21 1.46  24 1.46
   6  0.418  0.335  0.500-  32 1.44  21 1.45  22 1.47
   7  0.418  0.833  0.500-  27 1.44  24 1.45  23 1.47
   8  0.667  0.084  0.500-  27 1.45  28 1.45  25 1.45
   9  0.667  0.333  0.500-  32 1.45  29 1.45  25 1.45
  10  0.665  0.582  0.500-  32 1.44  30 1.45  26 1.47
  11  0.665  0.833  0.500-  27 1.44  31 1.45  26 1.47
  12  0.917  0.083  0.500-  28 1.45  31 1.46  17 1.46
  13  0.916  0.333  0.500-  18 1.45  28 1.45  29 1.45
  14  0.917  0.583  0.500-  29 1.45  30 1.46  19 1.46
  15  0.917  0.833  0.500-  30 1.45  31 1.45  20 1.45
  16  0.417  0.583  0.500-  22 1.41  26 1.41  23 1.41
  17  0.085  0.168  0.500-   1 1.45   2 1.45  12 1.46
  18  0.083  0.417  0.500-   3 1.44   2 1.44  13 1.45
  19  0.085  0.667  0.500-   4 1.45   3 1.45  14 1.46
  20  0.083  0.917  0.500-   4 1.45  15 1.45   1 1.45
  21  0.333  0.168  0.500-   1 1.45   6 1.45   5 1.46
  22  0.336  0.421  0.500-  16 1.41   2 1.47   6 1.47
  23  0.336  0.664  0.500-  16 1.41   3 1.47   7 1.47
  24  0.333  0.915  0.500-   4 1.45   7 1.45   5 1.46
  25  0.583  0.167  0.500-   5 1.45   8 1.45   9 1.45
  26  0.579  0.664  0.500-  16 1.41  11 1.47  10 1.47
  27  0.583  0.917  0.500-   7 1.44  11 1.44   8 1.45
  28  0.833  0.167  0.500-  12 1.45   8 1.45  13 1.45
  29  0.833  0.417  0.500-  14 1.45  13 1.45   9 1.45
  30  0.832  0.667  0.500-  15 1.45  10 1.45  14 1.46
  31  0.832  0.915  0.500-  15 1.45  11 1.45  12 1.46
  32  0.583  0.417  0.500-   6 1.44  10 1.44   9 1.45
  33  0.401  0.469  0.626-  34 1.28
  34  0.528  0.596  0.626-  33 1.28

  LATTYP: Found a hexagonal cell.
 ALAT       =    10.0487671536
 C/A-ratio  =     3.4944251219

  Lattice vectors:

 A1 = (   5.0243667045,  -8.7024973730,   0.0000000000)
 A2 = (   5.0243667045,   8.7024973730,   0.0000000000)
 A3 = (   0.0000000000,   0.0000000000,  35.1146643856)

Analysis of symmetry for initial positions (statically):
 Subroutine PRICEL returns:
 Original cell was already a primitive cell.

 Routine SETGRP: Setting up the symmetry group for a
 hexagonal supercell.

 Subroutine GETGRP returns: Found  1 space group operations
 (whereof  1 operations were pure point group operations)
 out of a pool of 24 trial point group operations.

The static configuration has the point symmetry C_1 .

Analysis of symmetry for dynamics (positions and initial velocities):
 Subroutine PRICEL returns:
 Original cell was already a primitive cell.

[...]

The dynamic configuration has the point symmetry C_1 .

Analysis of constrained symmetry for selective dynamics:
 Subroutine PRICEL returns:
 Original cell was already a primitive cell.

[...]

The constrained configuration has the point symmetry C_1 .

Analysis of structural, dynamic, and magnetic symmetry:
 Subroutine PRICEL returns:
 Original cell was already a primitive cell.

 Routine SETGRP: Setting up the symmetry group for a
 hexagonal supercell.

 Subroutine GETGRP returns: Found  1 space group operations
 (whereof  1 operations were pure point group operations)
 out of a pool of 24 trial point group operations.

The magnetic configuration has the point symmetry C_1 .

 Subroutine INISYM returns: Found  1 space group operations
 (whereof  1 operations are pure point group operations),
 and found     1 'primitive' translations

 KPOINTS: K-Point Grid

Automatic generation of k-mesh.
Space group operators:
 irot       det(A)        alpha          n_x          n_y          n_z        tau_x        tau_y        tau_z
    1     1.000000     0.000000     1.000000     0.000000     0.000000     0.000000     0.000000     0.000000

 Subroutine IBZKPT returns following result:

 Found     24 irreducible k-points:

 Following reciprocal coordinates:
            Coordinates               Weight
  0.125000  0.125000  0.000000     16.000000
  0.250000 -0.125000  0.000000     16.000000
  0.125000 -0.250000  0.000000     16.000000
  0.375000  0.125000  0.000000     16.000000
  0.500000 -0.375000  0.000000     16.000000
  0.125000  0.500000  0.000000     16.000000
 -0.125000 -0.375000  0.000000     16.000000
  0.375000  0.500000  0.000000     16.000000
  0.500000 -0.125000  0.000000     16.000000
 -0.375000  0.125000  0.000000     16.000000
 -0.250000  0.375000  0.000000     16.000000
  0.125000  0.250000  0.000000     16.000000
 -0.125000  0.375000  0.000000     16.000000
 -0.375000  0.250000  0.000000     16.000000
 -0.250000 -0.125000  0.000000     16.000000
 -0.125000  0.125000  0.000000     16.000000
  0.000000  0.125000  0.000000     16.000000
  0.125000  0.000000  0.000000     16.000000
  0.375000  0.375000  0.000000     16.000000
 -0.250000 -0.375000  0.000000     16.000000
  0.375000  0.250000  0.000000     16.000000
 -0.375000  0.375000  0.000000     16.000000
  0.000000  0.375000  0.000000     16.000000
  0.375000  0.000000  0.000000     16.000000

 Following cartesian coordinates:
            Coordinates               Weight
  0.024879  0.000000  0.000000     16.000000
  0.012439 -0.021546  0.000000     16.000000
 -0.012439 -0.021546  0.000000     16.000000
  0.049758 -0.014364  0.000000     16.000000
  0.012439 -0.050273  0.000000     16.000000
  0.062197  0.021546  0.000000     16.000000
 -0.049758 -0.014364  0.000000     16.000000
  0.087076  0.007182  0.000000     16.000000
  0.037318 -0.035909  0.000000     16.000000
 -0.024879  0.028727  0.000000     16.000000
  0.012439  0.035909  0.000000     16.000000
  0.037318  0.007182  0.000000     16.000000
  0.024879  0.028727  0.000000     16.000000
 -0.012439  0.035909  0.000000     16.000000
 -0.037318  0.007182  0.000000     16.000000
  0.000000  0.014364  0.000000     16.000000
  0.012439  0.007182  0.000000     16.000000
  0.012439 -0.007182  0.000000     16.000000
  0.074636  0.000000  0.000000     16.000000
 -0.062197 -0.007182  0.000000     16.000000
  0.062197 -0.007182  0.000000     16.000000
  0.000000  0.043091  0.000000     16.000000
  0.037318  0.021546  0.000000     16.000000
  0.037318 -0.021546  0.000000     16.000000

 SYSTEM =  SiC
 POSCAR =  B N O

 Startparameter for this run:
   NWRITE =      2    write-flag & timer
   PREC   = accura    normal or accurate (medium, high low for compatibility)
   ISTART =      0    job   : 0-new  1-cont  2-samecut
   ICHARG =      2    charge: 1-file 2-atom 10-const
   ISPIN  =      2    spin polarized calculation?
   LNONCOLLINEAR =      F non collinear calculations
   LSORBIT =      F    spin-orbit coupling
   INIWAV =      1    electr: 0-lowe 1-rand  2-diag
   LASPH  =      T    aspherical Exc in radial PAW
   METAGGA=      F    non-selfconsistent MetaGGA calc.

 Electronic Relaxation 1
   ENCUT  =  550.0 eV  40.42 Ry    6.36 a.u.  19.22 19.22 67.15*2*pi/ulx,y,z
   ENINI  =  550.0     initial cutoff
   ENAUG  =  627.1 eV  augmentation charge cutoff
   NELM   =    100;   NELMIN=  2; NELMDL= -5     # of ELM steps
   EDIFF  = 0.1E-04   stopping-criterion for ELM
   LREAL  =      T    real-space projection
   NLSPLINE    = F    spline interpolate recip. space projectors
   LCOMPAT=      F    compatible to vasp.4.4
   GGA_COMPAT  = T    GGA compatible to vasp.4.4-vasp.4.6
   LMAXPAW     = -100 max onsite density
   LMAXMIX     =    2 max onsite mixed and CHGCAR
   VOSKOWN=      0    Vosko Wilk Nusair interpolation
   ROPT   =   -0.00025  -0.00025  -0.00025
 Ionic relaxation
   EDIFFG = -.2E-01   stopping-criterion for IOM
   NSW    =      0    number of steps for IOM
   NBLOCK =      1;   KBLOCK =      1    inner block; outer block
   IBRION =     -1    ionic relax: 0-MD 1-quasi-New 2-CG
   NFREE  =      1    steps in history (QN), initial steepest desc. (CG)
   ISIF   =      2    stress and relaxation
   IWAVPR =     10    prediction:  0-non 1-charg 2-wave 3-comb
   ISYM   =      2    0-nonsym 1-usesym 2-fastsym
   LCORR  =      T    Harris-Foulkes like correction to forces

   POTIM  = 0.5000    time-step for ionic-motion
   TEIN   =    0.0    initial temperature
   TEBEG  =    0.0;   TEEND  =   0.0 temperature during run
   SMASS  =  -3.00    Nose mass-parameter (am)
   estimated Nose-frequenzy (Omega)   =  0.10E-29 period in steps =****** mass=  -0.231E-26a.u.
   SCALEE = 1.0000    scale energy and forces
   NPACO  =    256;   APACO  = 16.0  distance and # of slots for P.C.
   PSTRESS=    0.0 pullay stress

  Mass of Ions in am
   POMASS =  10.81 14.00 16.00
[...]
     47     -10.7947      1.00000
     48     -10.6437      1.00000
     49     -10.3588      1.00000
     50     -10.2283      1.00000
     51     -10.1987      1.00000
     52     -10.1464      1.00000
     53      -9.9075      1.00000
     54      -9.8207      1.00000
     55      -9.7508      1.00000
     56      -9.4889      1.00000
     57      -9.4262      1.00000
     58      -9.2613      1.00000
     59      -8.6260      1.00000
     60      -8.2889      1.00000
[...]
     94       1.0171      0.00000
     95       1.0813      0.00000
     96       1.1291      0.00000
     97       1.2528      0.00000
     98       1.2761      0.00000
     99       1.4465      0.00000
    100       1.4657      0.00000
    101       1.5371      0.00000
    102       1.6247      0.00000
    103       1.7937      0.00000
    104       1.8445      0.00000
    105       1.8710      0.00000
    106       3.9437      0.00000
    107       4.1263      0.00000
    108       4.4897      0.00000

[...]

 spin component 2

[...]

 k-point    24 :       0.3750    0.0000    0.0000
  band No.  band energies     occupation
      1     -30.3259      1.00000
      2     -28.6423      1.00000
      3     -24.9072      1.00000
      4     -24.5859      1.00000
      5     -24.4750      1.00000
      6     -24.0163      1.00000
      7     -23.6529      1.00000
      8     -23.5673      1.00000
      9     -23.1388      1.00000
     10     -23.0964      1.00000
     11     -22.5589      1.00000
     12     -22.5533      1.00000
     13     -22.3922      1.00000
     14     -22.0328      1.00000
     15     -21.9690      1.00000
     16     -21.7511      1.00000
     17     -21.6195      1.00000
     18     -18.9471      1.00000
     19     -18.9008      1.00000
     20     -16.0938      1.00000
     21     -16.0350      1.00000
     22     -15.2652      1.00000
     23     -15.1714      1.00000
     24     -14.9499      1.00000
     25     -14.9120      1.00000
     26     -14.3559      1.00000
     27     -14.2103      1.00000
     28     -13.9369      1.00000
     29     -13.5475      1.00000
     30     -13.4356      1.00000
     31     -13.0962      1.00000
     32     -13.0835      1.00000
     33     -12.8199      1.00000
     34     -12.8113      1.00000
     35     -12.3280      1.00000
     36     -11.7495      1.00000
     37     -11.6271      1.00000
     38     -11.4007      1.00000
     39     -11.3712      1.00000
     40     -11.3454      1.00000
     41     -11.3203      1.00000
     42     -11.1270      1.00000
     43     -11.0637      1.00000
     44     -10.8625      1.00000
     45     -10.7961      1.00000
     46     -10.6548      1.00000
     47     -10.6079      1.00000
     48     -10.4738      1.00000
     49     -10.3029      1.00000
     50     -10.0924      1.00000
     51     -10.0486      1.00000
     52      -9.9961      1.00000
     53      -9.8679      1.00000
     54      -9.6356      1.00000
     55      -9.6200      1.00000
     56      -9.4715      1.00000
     57      -9.1466      1.00000
     58      -8.9404      1.00000
     59      -8.9334      1.00000
     60      -8.7964      1.00000
[...]
     94       0.6804      0.00000
     95       0.6374      0.00000
     96       0.8307      0.00000
     97       0.9874      0.00000
     98       0.9617      0.00000
     99       0.9700      0.00000
    100       1.0912      0.00000
    101       1.1523      0.00000
    102       1.2370      0.00000
    103       1.2919      0.00000
    104       1.3430      0.00000
    105       1.3747      0.00000
    106       1.3746      0.00000
    107       1.5201      0.00000
    108       1.7755      0.00000

 soft charge-density along one line, spin component           1
         0         1         2         3         4         5         6         7         8         9
 total charge-density along one line

 soft charge-density along one line, spin component           2
         0         1         2         3         4         5         6         7         8         9
 total charge-density along one line

------------------------ aborting loop because EDIFF is reached ----------------------------------------

 total charge

# of ion       s       p       d       tot
    1        0.743   1.394   0.000   2.136
    2        0.736   1.391   0.000   2.127
    3        0.736   1.391   0.000   2.127
    4        0.743   1.394   0.000   2.136
    5        0.736   1.370   0.000   2.106
    6        0.736   1.391   0.000   2.127
    7        0.736   1.391   0.000   2.127
    8        0.743   1.393   0.000   2.135
    9        0.743   1.393   0.000   2.135
   10        0.736   1.391   0.000   2.127
   11        0.736   1.391   0.000   2.127
   12        0.736   1.370   0.000   2.106
   13        0.743   1.393   0.000   2.135
   14        0.736   1.370   0.000   2.106
   15        0.743   1.394   0.000   2.136
   16        1.154   2.746   0.000   3.900
   17        1.235   2.813   0.000   4.048
   18        1.238   2.840   0.000   4.078
   19        1.235   2.813   0.000   4.048
   20        1.236   2.821   0.000   4.058
   21        1.235   2.813   0.000   4.048
   22        1.220   2.742   0.000   3.962
   23        1.220   2.742   0.000   3.962
   24        1.235   2.813   0.000   4.048
   25        1.238   2.826   0.000   4.063
   26        1.220   2.742   0.000   3.962
   27        1.238   2.840   0.000   4.078
   28        1.238   2.826   0.000   4.063
   29        1.238   2.826   0.000   4.063
   30        1.235   2.813   0.000   4.048
   31        1.235   2.813   0.000   4.048
   32        1.238   2.840   0.000   4.078
   33        1.603   3.193   0.000   4.795
   34        1.603   3.193   0.000   4.795
tot         35.169  74.872   0.000 110.041

 magnetization (x)

[...]

  FORCE on cell =-STRESS in cart. coord.  units (eV):
  Direction    XX          YY          ZZ          XY          YZ          ZX
  Alpha Z    34.98873    34.98873    34.98873
  Ewald   50514.26856 50112.17112-54770.30645     0.04974   -11.20198    -0.18210
  Hartree 50365.86090 50174.89771-49234.64647     0.04395   -12.09668    -0.18328
  E(xc)    -586.66549  -586.32884  -588.97084    -0.00011    -0.12278    -0.00000
  Local  ************************102138.73196    -0.09263    24.46637     0.36526
  n-local  -290.34368  -288.59159  -304.64074    -0.00050     0.38063    -0.00080
  augment    27.49952    30.34559    36.30945    -0.00047    -0.19695    -0.00002
  Kinetic  2316.28751  2353.42387  2690.72350    -0.00042    -1.26895     0.00042
  Fock        0.00000     0.00000     0.00000     0.00000     0.00000     0.00000
  Total     -25.53085   -25.85488     2.18915    -0.00045    -0.04034    -0.00053
  in kB     -13.32085   -13.48992     1.14220    -0.00023    -0.02105    -0.00028

 VOLUME and BASIS-vectors are now :
  energy-cutoff  :      550.00
  volume of cell :     3070.74
      direct lattice vectors                 reciprocal lattice vectors
     5.024366704 -8.702497373  0.000000000     0.099515029 -0.057454772  0.000000000
     5.024366704  8.702497373  0.000000000     0.099515029  0.057454772  0.000000000
     0.000000000  0.000000000 35.114664386     0.000000000  0.000000000  0.028478131

  length of vectors
    10.048767154 10.048767154 35.114664386     0.114909929  0.114909929  0.028478131

 FORCES acting on ions
    electron-ion (+dipol)            ewald-force                    non-local-force                 convergence-correction
   0.648E+01 0.347E+01 0.262E+02   -.626E+01 -.334E+01 -.260E+02   0.656E-01 0.380E-01 -.240E-03   -.220E+00 -.133E+00 0.693E+00
   0.186E+02 0.301E+01 0.302E+02   -.185E+02 -.246E+01 -.299E+02   0.111E+01 -.745E+00 -.160E-02   -.107E+01 0.755E-01 0.802E+00
   0.420E+01 -.186E+02 0.277E+02   -.461E+01 0.181E+02 -.274E+02   0.120E+01 -.590E+00 -.171E-02   -.667E+00 0.861E+00 0.733E+00
   0.102E-01 -.490E+01 0.243E+02   -.101E-01 0.466E+01 -.241E+02   -.165E-04 -.761E-01 -.259E-03   0.268E-03 0.323E+00 0.643E+00
   0.440E+01 -.143E+00 0.255E+02   -.415E+01 0.147E-01 -.253E+02   -.217E+00 0.125E+00 -.318E-04   0.263E-01 0.480E-01 0.674E+00
   0.145E+02 0.134E+02 0.333E+02   -.139E+02 -.136E+02 -.330E+02   -.896E-01 0.134E+01 -.120E-02   -.401E+00 -.992E+00 0.883E+00
   -.422E+01 -.185E+02 0.276E+02   0.463E+01 0.181E+02 -.274E+02   -.120E+01 -.590E+00 -.171E-02   0.666E+00 0.862E+00 0.732E+00
   -.395E+01 -.220E+01 0.247E+02   0.390E+01 0.217E+01 -.245E+02   -.195E+00 -.113E+00 -.393E-03   0.250E+00 0.146E+00 0.654E+00
   -.133E-01 0.720E+01 0.269E+02   0.132E-01 -.713E+01 -.267E+02   -.418E-05 0.225E+00 -.331E-03   -.347E-03 -.220E+00 0.711E+00
   -.145E+02 0.134E+02 0.332E+02   0.140E+02 -.135E+02 -.330E+02   0.895E-01 0.133E+01 -.131E-02   0.400E+00 -.993E+00 0.881E+00
   -.186E+02 0.303E+01 0.301E+02   0.185E+02 -.248E+01 -.298E+02   -.111E+01 -.745E+00 -.168E-02   0.107E+01 0.762E-01 0.799E+00
   0.385E-01 0.289E+01 0.252E+02   -.381E-01 -.261E+01 -.250E+02   -.249E-04 -.250E+00 -.419E-04   0.104E-02 -.271E-01 0.667E+00
   0.397E+01 -.223E+01 0.248E+02   -.392E+01 0.220E+01 -.246E+02   0.195E+00 -.113E+00 -.383E-03   -.250E+00 0.145E+00 0.655E+00
   -.440E+01 -.187E+00 0.255E+02   0.414E+01 0.585E-01 -.253E+02   0.217E+00 0.125E+00 -.268E-04   -.262E-01 0.469E-01 0.673E+00
   -.642E+01 0.345E+01 0.261E+02   0.620E+01 -.332E+01 -.259E+02   -.656E-01 0.380E-01 -.230E-03   0.222E+00 -.134E+00 0.692E+00
   -.854E-01 -.541E+01 0.606E+02   0.857E-01 0.537E+01 -.600E+02   0.104E-04 0.117E-03 -.159E+00   -.255E-02 -.146E+00 0.160E+01
   0.139E+02 0.949E+00 0.450E+02   -.137E+02 -.103E+01 -.446E+02   0.618E+00 0.162E+00 0.120E-02   -.720E+00 -.160E+00 0.119E+01
   0.217E+02 -.145E+02 0.459E+02   -.219E+02 0.146E+02 -.455E+02   0.126E+01 -.728E+00 0.552E-02   -.110E+01 0.580E+00 0.121E+01
   0.298E+01 -.102E+02 0.417E+02   -.285E+01 0.102E+02 -.414E+02   0.169E+00 -.617E+00 -.339E-03   -.305E+00 0.765E+00 0.110E+01
   0.467E-01 0.150E+01 0.411E+02   -.463E-01 -.148E+01 -.408E+02   -.213E-04 -.244E-03 0.155E-02   0.126E-02 0.408E-01 0.108E+01
   0.110E+02 0.116E+02 0.469E+02   -.110E+02 -.114E+02 -.465E+02   0.450E+00 0.454E+00 0.281E-02   -.415E+00 -.541E+00 0.124E+01
   0.729E+02 0.374E+02 0.601E+02   -.814E+02 -.423E+02 -.596E+02   0.106E+02 0.613E+01 0.406E-01   -.267E+01 -.166E+01 0.157E+01
   -.563E-01 -.858E+02 0.526E+02   0.533E-01 0.955E+02 -.522E+02   0.233E-02 -.123E+02 0.293E-01   -.149E-02 0.304E+01 0.137E+01
   -.298E+01 -.102E+02 0.417E+02   0.285E+01 0.101E+02 -.414E+02   -.169E+00 -.616E+00 -.350E-03   0.305E+00 0.767E+00 0.110E+01
   0.339E+00 0.328E+01 0.422E+02   -.368E+00 -.325E+01 -.419E+02   -.859E-02 0.455E-02 0.509E-03   0.101E+00 0.320E-01 0.111E+01
   -.730E+02 0.374E+02 0.599E+02   0.815E+02 -.423E+02 -.595E+02   -.106E+02 0.613E+01 0.409E-01   0.267E+01 -.166E+01 0.157E+01
   -.217E+02 -.144E+02 0.458E+02   0.218E+02 0.145E+02 -.454E+02   -.126E+01 -.728E+00 0.527E-02   0.110E+01 0.582E+00 0.121E+01
   0.419E-01 -.127E+01 0.409E+02   -.414E-01 0.122E+01 -.405E+02   -.105E-04 -.904E-02 0.106E-03   0.111E-02 0.721E-01 0.108E+01
   -.343E+00 0.323E+01 0.422E+02   0.373E+00 -.319E+01 -.419E+02   0.854E-02 0.459E-02 0.466E-03   -.101E+00 0.306E-01 0.111E+01
   -.110E+02 0.115E+02 0.468E+02   0.109E+02 -.113E+02 -.464E+02   -.449E+00 0.454E+00 0.265E-02   0.416E+00 -.543E+00 0.123E+01
   -.138E+02 0.952E+00 0.449E+02   0.136E+02 -.103E+01 -.445E+02   -.619E+00 0.162E+00 0.942E-03   0.723E+00 -.160E+00 0.118E+01
   -.589E-01 0.282E+02 0.538E+02   0.588E-01 -.284E+02 -.534E+02   -.179E-03 0.146E+01 0.959E-02   -.157E-02 -.119E+01 0.141E+01
   0.265E+03 0.136E+01 -.606E+03   -.314E+03 -.127E+01 0.607E+03   0.459E+02 0.329E-02 -.248E-01   0.435E+01 -.109E+00 0.170E+01
   -.265E+03 0.135E+01 -.607E+03   0.314E+03 -.126E+01 0.607E+03   -.459E+02 0.274E-02 -.252E-01   -.435E+01 -.109E+00 0.170E+01
   -.255E-02 0.281E+00 -.356E+02   -.568E-13 -.121E-12 0.000E+00   0.172E-02 0.633E-02 -.795E-01   -.303E-02 -.286E+00 0.356E+02

 POSITION                                       TOTAL-FORCE (eV/Angst)
      1.25719     -0.72458     17.55753         0.013942      0.008062      0.000811
      2.52374      1.46208     17.55770         0.197794     -0.100914     -0.002486
      3.76393      3.61018     17.55762         0.187658     -0.121379     -0.001826
      5.02437      5.80040     17.55751         0.000122     -0.016334      0.000799
      2.51237     -2.90092     17.55750         0.012422     -0.007478      0.001135
      3.78417     -0.72103     17.55782         0.011249      0.221932     -0.002521
      6.28481      3.61018     17.55762        -0.187225     -0.121218     -0.001815
      3.77037     -5.07524     17.55746        -0.017998     -0.010668      0.000730
      5.02437     -2.90322     17.55751         0.000096      0.020458      0.001024
      6.26457     -0.72103     17.55781        -0.010979      0.221692     -0.002513
      7.52499      1.46208     17.55769        -0.197685     -0.100943     -0.002414
      5.02437     -7.25189     17.55748         0.000135      0.014500      0.001253
      6.27837     -5.07524     17.55746         0.018239     -0.010666      0.000736
      7.53637     -2.90092     17.55750        -0.012222     -0.007460      0.001132
      8.79155     -0.72458     17.55754        -0.013741      0.008020      0.000803
      5.02437      1.45040     17.55816         0.000602      0.002276      0.008320
      1.26974      0.72494     17.55736        -0.020649     -0.024270      0.001189
      2.50973      2.90224     17.55734        -0.020656      0.011993      0.002528
      3.77532      5.06476     17.55737         0.010696      0.030351      0.000730
      5.02437      7.25207     17.55730         0.000107      0.000225      0.000733
      2.51879     -1.43846     17.55737        -0.031122     -0.005906      0.001668
      3.80157      0.74443     17.55680        -0.644194     -0.373475      0.000008
      5.02437      2.86239     17.55690        -0.000296      0.745864     -0.002087
      6.27342      5.06476     17.55737        -0.010391      0.030441      0.000721
      3.76688     -3.62522     17.55728         0.022077     -0.012701      0.000520
      6.24718      0.74442     17.55677         0.644748     -0.372514     -0.000204
      7.53901      2.90224     17.55734         0.020927      0.011831      0.002491
      5.02437     -5.80329     17.55728         0.000125      0.025337      0.000508
      6.28186     -3.62522     17.55728        -0.021879     -0.012671      0.000502
      7.52995     -1.43846     17.55737         0.031364     -0.006020      0.001636
      8.77900      0.72494     17.55736         0.020733     -0.024297      0.001124
      5.02437     -1.45323     17.55739         0.000075     -0.024698      0.004251
      4.36984      0.59266     21.98642         1.303308     -0.000334     -0.009467
      5.64957      0.59270     21.98642        -1.307381      0.000964     -0.010018
    total drift:                               -0.003870      0.001278     -0.014777

  FREE ENERGIE OF THE ION-ELECTRON SYSTEM (eV)
  free  energy   TOTEN  =      -320.54791477 eV

  energy  without entropy=     -320.53594674  energy(sigma->0) =     -320.54193075

 total charge

[...]

 magnetization (x)

# of ion       s       p       d       tot
    1        0.000   0.001   0.000   0.001
    2        0.000   0.003   0.000   0.003
    3        0.000   0.003   0.000   0.003
    4        0.000   0.001   0.000   0.001
    5        0.000   0.000   0.000   0.001
    6        0.000   0.003   0.000   0.003
    7        0.000   0.003   0.000   0.003
    8        0.000   0.001   0.000   0.001
    9        0.000   0.001   0.000   0.001
   10        0.000   0.003   0.000   0.003
   11        0.000   0.003   0.000   0.003
   12        0.000   0.000   0.000   0.001
   13        0.000   0.001   0.000   0.001
   14        0.000   0.000   0.000   0.001
   15        0.000   0.001   0.000   0.001
   16       -0.004  -0.067   0.000  -0.071
   17       -0.000  -0.000   0.000  -0.000
   18       -0.000  -0.004   0.000  -0.005
   19       -0.000  -0.000   0.000  -0.000
   20       -0.000  -0.001   0.000  -0.001
   21       -0.000  -0.000   0.000  -0.000
   22       -0.001  -0.014   0.000  -0.015
   23       -0.001  -0.014   0.000  -0.015
   24       -0.000  -0.000   0.000  -0.000
   25       -0.000  -0.001   0.000  -0.001
   26       -0.001  -0.013   0.000  -0.015
   27       -0.000  -0.004   0.000  -0.005
   28       -0.000  -0.001   0.000  -0.001
   29       -0.000  -0.001   0.000  -0.001
   30       -0.000  -0.000   0.000  -0.000
   31       -0.000  -0.000   0.000  -0.000
   32       -0.001  -0.004   0.000  -0.005
   33        0.009   0.753   0.000   0.763
   34        0.009   0.753   0.000   0.762
tot          0.012   1.404   0.000   1.416