 vasp.5.4.4.18Apr17-6-g9f103f2a35 (build Jun 11 2020 13:42:08) complex

 executed on             LinuxIFC date 2021.02.03  10:06:04

 INCAR:
 POTCAR:    PAW_PBE B 06Sep2000
 POTCAR:    PAW_PBE N 08Apr2002
 POTCAR:    PAW_PBE C 08Apr2002
 POTCAR:    PAW_PBE F 08Apr2002
 POTCAR:    PAW_PBE O 08Apr2002

 POTCAR:    PAW_PBE B 06Sep2000
   VRHFIN =B: s2p1

   TITEL  = PAW_PBE B 06Sep2000
   POMASS =   10.811; ZVAL   =    3.000    mass and valenz
   ENMAX  =  318.614; ENMIN  =  238.960 eV

 POTCAR:    PAW_PBE N 08Apr2002
   VRHFIN =N: s2p3

   TITEL  = PAW_PBE N 08Apr2002
   POMASS =   14.001; ZVAL   =    5.000    mass and valenz
   ENMAX  =  400.000; ENMIN  =  300.000 eV

 POTCAR:    PAW_PBE C 08Apr2002
   VRHFIN =C: s2p2

[...]

 POTCAR:    PAW_PBE F 08Apr2002
   VRHFIN =F: s2p5

[...]

 POTCAR:    PAW_PBE O 08Apr2002
   VRHFIN =O: s2p4

   TITEL  = PAW_PBE O 08Apr2002
   POMASS =   16.000; ZVAL   =    6.000    mass and valenz
   ENMAX  =  400.000; ENMIN  =  300.000 eV

 Optimization of the real space projectors (new method)

 maximal supplied QI-value         = 22.11
 optimisation between [QCUT,QGAM] = [ 11.94, 23.88] = [ 39.92,159.67] Ry
 Optimized for a Real-space Cutoff    1.18 Angstroem

   l    n(q)    QCUT    max X(q) W(low)/X(q) W(high)/X(q)  e(spline)
   0      8    11.939    53.033    0.11E-03    0.34E-03    0.60E-07
   0      8    11.939    34.740    0.11E-03    0.34E-03    0.59E-07
   1      8    11.939    30.949    0.22E-03    0.20E-03    0.17E-06
   1      8    11.939    19.518    0.20E-03    0.18E-03    0.16E-06
 Optimization of the real space projectors (new method)

[...]

   l    n(q)    QCUT    max X(q) W(low)/X(q) W(high)/X(q)  e(spline)
   0      8    11.883    14.049    0.56E-04    0.86E-04    0.22E-06
   0      8    11.883     8.945    0.81E-04    0.11E-03    0.30E-06
   1      8    11.883     7.086    0.16E-03    0.15E-04    0.31E-06
   1      8    11.883     6.747    0.15E-03    0.14E-04    0.28E-06
 Optimization of the real space projectors (new method)

 maximal supplied QI-value         = 24.76
 optimisation between [QCUT,QGAM] = [ 11.88, 24.01] = [ 39.54,161.47] Ry
 Optimized for a Real-space Cutoff    1.18 Angstroem

   l    n(q)    QCUT    max X(q) W(low)/X(q) W(high)/X(q)  e(spline)
   0      8    11.883    20.381    0.86E-04    0.11E-03    0.31E-06
   0      8    11.883    15.268    0.94E-04    0.12E-03    0.33E-06
   1      8    11.883     5.964    0.19E-03    0.18E-04    0.33E-06
   1      8    11.883     5.382    0.17E-03    0.20E-04    0.29E-06
  PAW_PBE B 06Sep2000                   :
  PAW_PBE N 08Apr2002                   :
  PAW_PBE C 08Apr2002                   :
  PAW_PBE F 08Apr2002                   :
  PAW_PBE O 08Apr2002                   :

 POSCAR: B N C F O
  positions in direct lattice
  velocities in cartesian coordinates

 METAGGA = SCAN     LMAXTAU =  6    LMIXTAU =  F

 VTST: version 3.1, (03/28/14)

 CHAIN: initializing optimizer

 OPT: Using VASP Conjugate-Gradient optimizer
 CHAIN: Read ICHAIN            0

 POSCAR: B N C F O
  positions in direct lattice
  velocities in cartesian coordinates

 ion  position               nearest neighbor table
   1  0.167  0.083  0.500-  20 1.45  17 1.45  21 1.45
   2  0.167  0.333  0.500-  17 1.45  18 1.45  22 1.45
   3  0.167  0.583  0.500-  18 1.45  19 1.45  23 1.45
   4  0.167  0.833  0.500-  19 1.45  20 1.45  24 1.45
   5  0.417  0.083  0.500-  24 1.45  25 1.45  21 1.45
   6  0.417  0.333  0.500-  21 1.45  26 1.45  22 1.45
   7  0.417  0.583  0.500-  23 1.45  22 1.45  27 1.45
   8  0.417  0.833  0.500-  24 1.45  28 1.45  23 1.45
   9  0.667  0.083  0.500-  29 1.45  25 1.45  28 1.45
  10  0.667  0.333  0.500-  30 1.45  25 1.45  26 1.45
  11  0.667  0.583  0.500-  31 1.45  26 1.45  27 1.45
  12  0.667  0.833  0.500-  32 1.45  28 1.45  27 1.45
  13  0.917  0.083  0.500-  17 1.45  29 1.45  32 1.45
  14  0.917  0.333  0.500-  29 1.45  18 1.45  30 1.45
  15  0.917  0.583  0.500-  30 1.45  19 1.45  31 1.45
  16  0.917  0.833  0.500-  20 1.45  31 1.45  32 1.45
  17  0.083  0.167  0.500-   2 1.45  13 1.45   1 1.45
  18  0.083  0.417  0.500-   3 1.45   2 1.45  14 1.45
  19  0.083  0.667  0.500-  15 1.45   4 1.45   3 1.45
  20  0.083  0.917  0.500-   1 1.45  16 1.45   4 1.45
  21  0.333  0.167  0.500-   6 1.45   1 1.45   5 1.45
  22  0.333  0.417  0.500-   7 1.45   6 1.45   2 1.45
  23  0.333  0.667  0.500-   7 1.45   8 1.45   3 1.45
  24  0.333  0.917  0.500-   5 1.45   8 1.45   4 1.45
  25  0.583  0.167  0.500-  10 1.45   5 1.45   9 1.45
  26  0.583  0.417  0.500-  11 1.45   6 1.45  10 1.45
  27  0.583  0.667  0.500-   7 1.45  11 1.45  12 1.45
  28  0.583  0.917  0.500-  12 1.45   8 1.45   9 1.45
  29  0.833  0.167  0.500-   9 1.45  14 1.45  13 1.45
  30  0.833  0.417  0.500-  10 1.45  15 1.45  14 1.45
  31  0.833  0.667  0.500-  11 1.45  16 1.45  15 1.45
  32  0.833  0.917  0.500-  12 1.45  13 1.45  16 1.45
  33  0.560  0.470  0.673-  36 1.34  38 1.34  37 1.35  34 1.54
  34  0.533  0.465  0.630-  40 1.33  39 1.33  33 1.54  35 1.90
  35  0.514  0.639  0.617-  42 1.20  41 1.20  34 1.90
  36  0.693  0.594  0.682-  33 1.34
  37  0.567  0.344  0.683-  33 1.35
  38  0.445  0.470  0.692-  33 1.34
  39  0.650  0.476  0.610-  34 1.33
  40  0.403  0.340  0.620-  34 1.33
  41  0.644  0.742  0.613-  35 1.20
  42  0.378  0.592  0.616-  35 1.20

IMPORTANT INFORMATION: All symmetrisations will be switched off!
NOSYMM: (Re-)initialisation of all symmetry stuff for point group C_1.

 KPOINTS: K-Point Grid

Automatic generation of k-mesh.
Space group operators:
 irot       det(A)        alpha          n_x          n_y          n_z        tau_x        tau_y        tau_z
    1     1.000000     0.000000     1.000000     0.000000     0.000000     0.000000     0.000000     0.000000

 Subroutine IBZKPT returns following result:

 Found     24 irreducible k-points:

 Following reciprocal coordinates:
            Coordinates               Weight
  0.125000  0.125000  0.000000     16.000000
  0.250000 -0.125000  0.000000     16.000000
  0.125000 -0.250000  0.000000     16.000000
  0.375000  0.125000  0.000000     16.000000
  0.500000 -0.375000  0.000000     16.000000
  0.125000  0.500000  0.000000     16.000000
 -0.125000 -0.375000  0.000000     16.000000
  0.375000  0.500000  0.000000     16.000000
  0.500000 -0.125000  0.000000     16.000000
 -0.375000  0.125000  0.000000     16.000000
 -0.250000  0.375000  0.000000     16.000000
  0.125000  0.250000  0.000000     16.000000
 -0.125000  0.375000  0.000000     16.000000
 -0.375000  0.250000  0.000000     16.000000
 -0.250000 -0.125000  0.000000     16.000000
 -0.125000  0.125000  0.000000     16.000000
  0.000000  0.125000  0.000000     16.000000
  0.125000  0.000000  0.000000     16.000000
  0.375000  0.375000  0.000000     16.000000
 -0.250000 -0.375000  0.000000     16.000000
  0.375000  0.250000  0.000000     16.000000
 -0.375000  0.375000  0.000000     16.000000
  0.000000  0.375000  0.000000     16.000000
  0.375000  0.000000  0.000000     16.000000

 Following cartesian coordinates:
            Coordinates               Weight
  0.024879  0.000000  0.000000     16.000000
  0.012439 -0.021546  0.000000     16.000000
 -0.012439 -0.021546  0.000000     16.000000
  0.049758 -0.014364  0.000000     16.000000
  0.012439 -0.050273  0.000000     16.000000
  0.062197  0.021546  0.000000     16.000000
 -0.049758 -0.014364  0.000000     16.000000
  0.087076  0.007182  0.000000     16.000000
  0.037318 -0.035909  0.000000     16.000000
 -0.024879  0.028727  0.000000     16.000000
  0.012439  0.035909  0.000000     16.000000
  0.037318  0.007182  0.000000     16.000000
  0.024879  0.028727  0.000000     16.000000
 -0.012439  0.035909  0.000000     16.000000
 -0.037318  0.007182  0.000000     16.000000
  0.000000  0.014364  0.000000     16.000000
  0.012439  0.007182  0.000000     16.000000
  0.012439 -0.007182  0.000000     16.000000
  0.074636  0.000000  0.000000     16.000000
 -0.062197 -0.007182  0.000000     16.000000
  0.062197 -0.007182  0.000000     16.000000
  0.000000  0.043091  0.000000     16.000000
  0.037318  0.021546  0.000000     16.000000
  0.037318 -0.021546  0.000000     16.000000

 SYSTEM =  hBN
 POSCAR =  B N C F O

 Startparameter for this run:
   NWRITE =      2    write-flag & timer
   PREC   = accura    normal or accurate (medium, high low for compatibility)
   ISTART =      1    job   : 0-new  1-cont  2-samecut
   ICHARG =      0    charge: 1-file 2-atom 10-const
   ISPIN  =      2    spin polarized calculation?
   LNONCOLLINEAR =      F non collinear calculations
   LSORBIT =      F    spin-orbit coupling
   INIWAV =      1    electr: 0-lowe 1-rand  2-diag
   LASPH  =      T    aspherical Exc in radial PAW
   METAGGA=      F    non-selfconsistent MetaGGA calc.

 Electronic Relaxation 1
   ENCUT  =  550.0 eV  40.42 Ry    6.36 a.u.  19.22 19.22 67.15*2*pi/ulx,y,z
   ENINI  =  550.0     initial cutoff
   ENAUG  =  644.9 eV  augmentation charge cutoff
   NELM   =    100;   NELMIN=  2; NELMDL=  0     # of ELM steps
   EDIFF  = 0.1E-04   stopping-criterion for ELM
   LREAL  =      T    real-space projection
   NLSPLINE    = F    spline interpolate recip. space projectors
   LCOMPAT=      F    compatible to vasp.4.4
   GGA_COMPAT  = T    GGA compatible to vasp.4.4-vasp.4.6
   LMAXPAW     = -100 max onsite density
   LMAXMIX     =    2 max onsite mixed and CHGCAR
   VOSKOWN=      0    Vosko Wilk Nusair interpolation
   ROPT   =   -0.00025  -0.00025  -0.00025  -0.00025
   ROPT   =   -0.00025
 Ionic relaxation
   EDIFFG = -.5E-01   stopping-criterion for IOM
   NSW    =      0    number of steps for IOM
   NBLOCK =      1;   KBLOCK =      1    inner block; outer block
   IBRION =     -1    ionic relax: 0-MD 1-quasi-New 2-CG
   NFREE  =      1    steps in history (QN), initial steepest desc. (CG)
   ISIF   =      2    stress and relaxation
   IWAVPR =     10    prediction:  0-non 1-charg 2-wave 3-comb
   ISYM   =      0    0-nonsym 1-usesym 2-fastsym
   LCORR  =      T    Harris-Foulkes like correction to forces

   POTIM  = 0.5000    time-step for ionic-motion
   TEIN   =    0.0    initial temperature
   TEBEG  =    0.0;   TEEND  =   0.0 temperature during run
   SMASS  =  -3.00    Nose mass-parameter (am)
   estimated Nose-frequenzy (Omega)   =  0.10E-29 period in steps =****** mass=  -0.231E-26a.u.
   SCALEE = 1.0000    scale energy and forces
   NPACO  =    256;   APACO  = 16.0  distance and # of slots for P.C.
   PSTRESS=    0.0 pullay stress

  Mass of Ions in am
   POMASS =  10.81 14.00 12.01 19.00 16.00
  Ionic Valenz
   ZVAL   =   3.00  5.00  4.00  7.00  6.00
  Atomic Wigner-Seitz radii
  virtual crystal weights
   VCA    =   1.00  1.00  1.00  1.00  1.00
   NELECT =     187.0000    total number of electrons
   NUPDOWN=      -1.0000    fix difference up-down

 DOS related values:
   EMIN   = -10.00;   EMAX   =  5.00  energy-range for DOS
   EFERMI =   0.00
   ISMEAR =     0;   SIGMA  =   0.05  broadening in eV -4-tet -1-fermi 0-gaus

 Electronic relaxation 2 (details)
   IALGO  =     68    algorithm
   LDIAG  =      T    sub-space diagonalisation (order eigenvalues)
   LSUBROT=      F    optimize rotation matrix (better conditioning)
[...]
     49     -12.6552      1.00000
     50     -12.5373      1.00000
     51     -12.2709      1.00000
     52     -12.0317      1.00000
     53     -11.9479      1.00000
     54     -11.6468      1.00000
     55     -11.6462      1.00000
     56     -11.6384      1.00000
     57     -11.4710      1.00000
     58     -11.3594      1.00000
     59     -11.1420      1.00000
     60     -11.0577      1.00000
[...]
    130       1.6230      0.00000
    131       1.6528      0.00000
    132       1.8029      0.00000
    133       1.8758      0.00000
    134       1.9815      0.00000
    135       2.0017      0.00000
    136       2.0581      0.00000
    137       2.0978      0.00000
    138       2.1232      0.00000
    139       2.2732      0.00000
    140       2.3019      0.00000
    141       2.5804      0.00000
    142       2.8049      0.00000
    143       2.8206      0.00000
    144       2.8715      0.00000

 soft charge-density along one line, spin component           1
         0         1         2         3         4         5         6         7         8         9
 total charge-density along one line

 soft charge-density along one line, spin component           2
         0         1         2         3         4         5         6         7         8         9
 total charge-density along one line

------------------------ aborting loop because EDIFF is reached ----------------------------------------

 total charge

# of ion       s       p       d       tot
    1        0.744   1.393   0.000   2.137
    2        0.744   1.393   0.000   2.137
    3        0.744   1.393   0.000   2.137
    4        0.744   1.393   0.000   2.137
    5        0.744   1.393   0.000   2.137
    6        0.744   1.394   0.000   2.138
    7        0.744   1.394   0.000   2.138
    8        0.744   1.393   0.000   2.137
    9        0.744   1.393   0.000   2.137
   10        0.744   1.393   0.000   2.137
   11        0.744   1.394   0.000   2.138
   12        0.744   1.393   0.000   2.137
   13        0.744   1.393   0.000   2.137
   14        0.744   1.393   0.000   2.137
   15        0.744   1.393   0.000   2.137
   16        0.744   1.393   0.000   2.137
   17        1.238   2.821   0.000   4.059
   18        1.238   2.821   0.000   4.059
   19        1.238   2.821   0.000   4.059
   20        1.238   2.821   0.000   4.059
   21        1.238   2.821   0.000   4.059
   22        1.238   2.821   0.000   4.059
   23        1.238   2.821   0.000   4.059
   24        1.238   2.821   0.000   4.059
   25        1.238   2.821   0.000   4.059
   26        1.238   2.821   0.000   4.059
   27        1.238   2.820   0.000   4.059
   28        1.238   2.821   0.000   4.059
   29        1.238   2.821   0.000   4.059
   30        1.238   2.821   0.000   4.059
   31        1.238   2.821   0.000   4.059
   32        1.238   2.821   0.000   4.059
   33        0.813   1.563   0.000   2.376
   34        0.838   1.551   0.000   2.389
   35        0.907   1.730   0.000   2.637
   36        1.759   4.413   0.000   6.172
   37        1.759   4.406   0.000   6.165
   38        1.759   4.413   0.000   6.171
   39        1.759   4.400   0.000   6.159
   40        1.759   4.402   0.000   6.160
   41        1.605   3.560   0.000   5.165
   42        1.605   3.563   0.000   5.168
tot         46.280 101.427   0.000 147.707

 magnetization (x)

[...]

  FORCE on cell =-STRESS in cart. coord.  units (eV):
  Direction    XX          YY          ZZ          XY          YZ          ZX
  Alpha Z    57.55240    57.55240    57.55240
  Ewald   65440.53756 65382.90856-68650.13592   -90.86125  -291.37769  -135.05465
  Hartree 66326.81991 66508.80701-62076.67816    58.03502  -305.67393   -97.11760
  E(xc)    -834.17965  -833.87385  -839.10777     0.15962    -0.25579     0.00597
  Local  ************************128257.25716    -0.01825   611.81313   226.85524
  n-local  -490.19594  -487.12465  -483.10440     1.95897     0.09623     0.37776
  augment   118.73803   122.50058   129.81189     2.14230    -1.77110     0.45546
  Kinetic  3265.40700  3314.26764  3604.78232    29.30060   -12.68353     4.78250
  Fock        0.00000     0.00000     0.00000     0.00000     0.00000     0.00000
  Total     -13.31012   -12.19284     0.37752     0.71700     0.14732     0.30468
  in kB      -6.94463    -6.36168     0.19697     0.37410     0.07687     0.15897

 VOLUME and BASIS-vectors are now :
  energy-cutoff  :      550.00
  volume of cell :     3070.74
      direct lattice vectors                 reciprocal lattice vectors
     5.024366704 -8.702497373  0.000000000     0.099515029 -0.057454772  0.000000000
     5.024366704  8.702497373  0.000000000     0.099515029  0.057454772  0.000000000
     0.000000000  0.000000000 35.114664386     0.000000000  0.000000000  0.028478131

  length of vectors
    10.048767154 10.048767154 35.114664386     0.114909929  0.114909929  0.028478131

 FORCES acting on ions
    electron-ion (+dipol)            ewald-force                    non-local-force                 convergence-correction
   0.808E+01 0.147E+01 0.123E+03   -.814E+01 -.143E+01 -.123E+03   0.527E-02 0.186E-03 0.903E-04   0.543E-05 -.190E-04 -.353E-03
   0.126E+02 -.630E+01 0.130E+03   -.126E+02 0.636E+01 -.129E+03   0.109E-01 -.383E-02 0.190E-02   -.485E-04 0.419E-05 -.384E-03
   0.372E+01 -.842E+01 0.125E+03   -.370E+01 0.838E+01 -.124E+03   0.615E-02 -.313E-02 0.739E-03   -.499E-04 0.541E-04 -.382E-03
   -.772E+00 -.463E+00 0.118E+03   0.738E+00 0.442E+00 -.118E+03   0.950E-03 -.672E-03 -.891E-03   -.582E-05 0.210E-04 -.350E-03
   0.760E+01 0.545E+01 0.125E+03   -.765E+01 -.548E+01 -.125E+03   0.218E-02 0.401E-02 -.323E-04   0.313E-04 0.130E-04 -.336E-03
   0.132E+02 0.439E+01 0.147E+03   -.133E+02 -.434E+01 -.147E+03   0.912E-02 0.701E-02 0.102E-02   -.289E-04 -.717E-04 -.385E-03
   0.371E+01 -.120E+02 0.150E+03   -.371E+01 0.121E+02 -.150E+03   0.470E-02 -.719E-02 0.153E-03   -.331E-04 -.111E-05 -.465E-03
   -.178E+01 -.111E+02 0.127E+03   0.175E+01 0.110E+02 -.127E+03   -.186E-02 -.462E-02 0.913E-03   0.231E-04 0.670E-04 -.405E-03
   -.306E+01 0.710E+00 0.121E+03   0.304E+01 -.792E+00 -.121E+03   -.451E-02 0.183E-02 0.296E-03   0.474E-04 0.562E-04 -.343E-03
   0.125E+01 0.149E+02 0.136E+03   -.122E+01 -.150E+02 -.136E+03   -.103E-02 0.116E-01 0.242E-02   0.637E-05 -.293E-04 -.309E-03
   -.925E+01 0.603E+01 0.153E+03   0.935E+01 -.599E+01 -.152E+03   -.757E-02 0.945E-02 0.252E-02   0.696E-05 -.985E-04 -.402E-03
   -.133E+02 -.771E+01 0.138E+03   0.133E+02 0.770E+01 -.137E+03   -.131E-01 -.362E-02 0.415E-02   0.580E-04 0.641E-05 -.431E-03
   -.306E+01 -.213E+01 0.120E+03   0.301E+01 0.211E+01 -.119E+03   -.130E-02 -.130E-02 -.122E-04   0.247E-04 0.146E-04 -.361E-03
   0.111E+01 0.324E+01 0.120E+03   -.107E+01 -.328E+01 -.119E+03   0.183E-02 0.240E-02 0.475E-04   -.193E-04 0.465E-04 -.322E-03
   -.811E+01 0.856E+01 0.127E+03   0.815E+01 -.856E+01 -.127E+03   -.161E-02 0.625E-02 0.114E-02   -.309E-04 -.139E-04 -.323E-03
   -.121E+02 0.308E+01 0.127E+03   0.121E+02 -.302E+01 -.126E+03   -.486E-02 0.189E-02 0.999E-03   0.173E-04 -.389E-04 -.368E-03
   0.125E+02 -.375E+01 0.204E+03   -.126E+02 0.380E+01 -.204E+03   0.443E-02 0.241E-02 -.143E-02   -.113E-04 -.104E-04 -.603E-03
   0.115E+02 -.853E+01 0.206E+03   -.114E+02 0.851E+01 -.205E+03   -.336E-02 -.168E-02 -.514E-03   -.858E-04 0.705E-04 -.605E-03
   -.460E+01 -.821E+00 0.201E+03   0.462E+01 0.767E+00 -.200E+03   -.100E-01 -.386E-02 0.805E-02   -.641E-04 0.519E-04 -.579E-03
   -.333E+01 0.389E+01 0.199E+03   0.325E+01 -.385E+01 -.199E+03   -.502E-03 0.253E-03 0.693E-02   0.114E-04 -.245E-04 -.586E-03
   0.222E+02 0.915E+01 0.219E+03   -.223E+02 -.912E+01 -.219E+03   0.155E-01 0.503E-02 0.706E-02   0.117E-04 -.530E-04 -.577E-03
   0.224E+02 -.104E+02 0.243E+03   -.224E+02 0.106E+02 -.242E+03   0.147E-01 -.373E-02 -.136E-01   -.885E-04 -.619E-04 -.695E-03
   0.398E+01 -.245E+02 0.224E+03   -.402E+01 0.245E+02 -.224E+03   0.833E-03 -.203E-01 -.134E-02   -.438E-04 0.874E-04 -.724E-03
   0.412E+01 -.462E+01 0.201E+03   -.420E+01 0.454E+01 -.200E+03   0.351E-02 -.380E-02 0.125E-01   0.352E-04 0.776E-04 -.605E-03
   0.583E+01 0.148E+02 0.211E+03   -.586E+01 -.149E+02 -.210E+03   0.610E-02 0.279E-02 -.505E-02   0.667E-04 0.418E-04 -.520E-03
   0.446E+01 0.190E+02 0.251E+03   -.438E+01 -.190E+02 -.251E+03   0.231E-02 0.114E-01 -.313E-01   -.139E-04 -.155E-03 -.573E-03
   -.140E+02 -.102E+02 0.253E+03   0.142E+02 0.102E+02 -.252E+03   -.152E-01 -.683E-02 -.616E-01   0.277E-04 -.795E-04 -.747E-03
   -.121E+02 -.144E+02 0.214E+03   0.121E+02 0.143E+02 -.213E+03   0.513E-03 -.637E-02 -.111E-01   0.923E-04 0.922E-04 -.667E-03
   -.333E+01 0.128E+01 0.198E+03   0.331E+01 -.139E+01 -.197E+03   -.233E-02 0.668E-04 0.746E-02   0.368E-04 0.826E-04 -.562E-03
   -.534E+01 0.190E+02 0.212E+03   0.543E+01 -.191E+02 -.211E+03   -.557E-02 0.965E-03 -.106E-01   -.375E-04 0.179E-04 -.490E-03
   -.233E+02 0.137E+02 0.227E+03   0.234E+02 -.136E+02 -.227E+03   -.144E-01 0.504E-02 -.109E-01   -.979E-05 -.112E-03 -.583E-03
   -.209E+02 -.345E+01 0.213E+03   0.208E+02 0.346E+01 -.212E+03   -.812E-02 0.410E-02 -.129E-02   0.714E-04 -.235E-04 -.653E-03
   0.287E+01 0.197E+02 -.431E+03   -.369E+01 -.186E+02 0.423E+03   0.945E+00 -.905E+00 0.830E+01   0.104E-03 -.748E-03 0.140E-02
   -.146E+02 -.476E+02 -.314E+03   0.205E+02 0.569E+02 0.321E+03   -.561E+01 -.880E+01 -.658E+01   -.782E-03 -.195E-02 -.378E-03
   -.374E+02 -.970E+02 -.294E+03   0.371E+02 0.963E+02 0.294E+03   0.556E+00 0.114E+01 -.174E+00   0.737E-03 0.147E-02 -.133E-02
   -.509E+03 0.744E+02 -.946E+03   0.568E+03 -.776E+02 0.962E+03   -.575E+02 0.337E+01 -.156E+02   0.134E-02 -.102E-02 0.969E-03
   0.229E+03 0.478E+03 -.931E+03   -.255E+03 -.529E+03 0.947E+03   0.256E+02 0.494E+02 -.161E+02   -.425E-03 -.166E-02 0.554E-03
   0.229E+03 -.354E+03 -.108E+04   -.256E+03 0.399E+03 0.111E+04   0.254E+02 -.442E+02 -.304E+02   -.631E-03 0.155E-03 0.149E-02
   -.206E+03 0.385E+03 -.272E+03   0.237E+03 -.426E+03 0.240E+03   -.295E+02 0.417E+02 0.320E+02   0.114E-02 -.417E-02 -.326E-02
   0.516E+03 0.198E+02 -.408E+03   -.575E+03 -.158E+02 0.392E+03   0.579E+02 -.255E+01 0.165E+02   -.403E-02 -.156E-02 -.225E-02
   -.416E+03 -.983E+02 -.410E+03   0.476E+03 0.865E+02 0.404E+03   -.578E+02 0.117E+02 0.650E+01   0.268E-02 0.463E-03 -.187E-02
   0.201E+03 -.388E+03 -.451E+03   -.249E+03 0.428E+03 0.451E+03   0.455E+02 -.383E+02 0.103E+01   -.118E-02 0.239E-02 -.168E-02
   -.572E+01 -.126E+02 0.471E+01   0.142E-12 0.000E+00 0.227E-12   0.569E+01 0.125E+02 -.467E+01   -.104E-02 -.662E-02 -.220E-01

 POSITION                                       TOTAL-FORCE (eV/Angst)
      1.25616     -0.72473     17.55843         0.003344      0.003590      0.000994
      2.51212      1.45094     17.55913         0.007235      0.001825      0.002185
      3.76830      3.62660     17.55871         0.007629      0.000659      0.000870
      5.02460      5.80221     17.55802         0.001593     -0.000143      0.001342
      2.51239     -2.90046     17.55852         0.001141      0.002795      0.001052
      3.76822     -0.72496     17.55923         0.004310      0.007245      0.001872
      5.02436      1.45107     17.55902         0.003318      0.004384      0.007089
      6.28070      3.62662     17.55879         0.000473     -0.001065      0.002545
      3.76859     -5.07609     17.55894        -0.003227      0.002847      0.001739
      5.02460     -2.90066     17.55962        -0.001492      0.008382      0.005366
      6.28076     -0.72500     17.56006        -0.000768      0.007543      0.008003
      7.53698      1.45089     17.56021        -0.004749      0.002776      0.007959
      5.02458     -7.25157     17.55869        -0.000635      0.001572      0.001271
      6.28064     -5.07603     17.55867         0.002502      0.002052      0.001993
      7.53676     -2.90050     17.55912         0.002324      0.006756      0.001729
      8.79288     -0.72480     17.55914        -0.001366      0.007016      0.002290
      1.25634      0.72572     17.55863        -0.003798     -0.002126     -0.001054
      2.51248      2.90127     17.55869        -0.006516      0.001656     -0.000528
      3.76855      5.07701     17.55820        -0.003627     -0.001841      0.000238
      5.02456      7.25265     17.55813        -0.000376     -0.003444     -0.000353
      2.51243     -1.44990     17.55858        -0.005166     -0.004194      0.000514
      3.76859      0.72562     17.56015        -0.007962     -0.001040     -0.002913
      5.02461      2.90131     17.55883        -0.003797      0.002318     -0.001181
      6.28075      5.07694     17.55793        -0.003078      0.001315      0.000440
      3.76852     -3.62557     17.55911         0.000088     -0.002579     -0.001629
      5.02452     -1.44981     17.56112         0.000278     -0.008551     -0.004797
      6.28040      0.72570     17.56241         0.005212     -0.003510     -0.008094
      7.53671      2.90122     17.55963         0.003338      0.002090     -0.001415
      5.02461     -5.80114     17.55836         0.000345     -0.002965      0.000133
      6.28066     -3.62546     17.55936         0.000824     -0.006893     -0.001695
      7.53662     -1.44983     17.55970         0.004983     -0.007625     -0.001362
      8.79275      0.72573     17.55918         0.004939     -0.003688     -0.000057
      5.17460     -0.79007     23.62884        -0.003392     -0.013605     -0.001151
      5.01493     -0.58691     22.11465        -0.013139     -0.021138      0.011087
      5.78968      1.08986     21.65649         0.056728     -0.006058     -0.004786
      6.46610     -0.86157     23.96151        -0.018706      0.016448     -0.034139
      4.57461     -1.93987     23.98544         0.010622      0.004824      0.031277
      4.59899      0.21605     24.29574         0.007127     -0.004843     -0.031354
      5.65849     -1.52070     21.42744        -0.017791     -0.009015      0.001166
      3.73576     -0.54868     21.77043        -0.002665     -0.026789     -0.004437
      6.96045      0.85351     21.52628        -0.018316      0.015612      0.002148
      4.87386      1.86414     21.63656        -0.007786      0.027409      0.005643
    total drift:                               -0.034394     -0.066270      0.020916

  FREE ENERGIE OF THE ION-ELECTRON SYSTEM (eV)
  free  energy   TOTEN  =      -386.73425029 eV

  energy  without entropy=     -386.72225487  energy(sigma->0) =     -386.72825258

 stress matrix after NEB project (eV)
    -13.31012      0.71693      0.30468
      0.71700    -12.19284      0.14759
      0.30328      0.14732      0.37752
  FORCES: max atom, RMS     0.057251    0.017037
  FORCE total and by dimension    0.110415    0.056728
  Stress total and by dimension   18.089324   13.310124
 writing wavefunctions

 total charge

[...]

 magnetization (x)

# of ion       s       p       d       tot
    1       -0.000  -0.000   0.000  -0.000
    2       -0.000  -0.000   0.000  -0.000
    3       -0.000  -0.000   0.000  -0.000
    4       -0.000  -0.000   0.000  -0.000
    5       -0.000  -0.000   0.000  -0.000
    6       -0.000  -0.000   0.000  -0.000
    7       -0.000   0.000   0.000  -0.000
    8       -0.000  -0.000   0.000  -0.000
    9       -0.000  -0.000   0.000  -0.000
   10       -0.000  -0.000   0.000  -0.000
   11       -0.000  -0.000   0.000  -0.000
   12        0.000   0.000   0.000   0.000
   13       -0.000  -0.000   0.000  -0.000
   14       -0.000  -0.000   0.000  -0.000
   15       -0.000  -0.000   0.000  -0.000
   16       -0.000  -0.000   0.000  -0.000
   17        0.000   0.000   0.000   0.000
   18        0.000   0.000   0.000   0.000
   19        0.000   0.000   0.000   0.000
   20        0.000   0.000   0.000   0.000
   21        0.000   0.000   0.000   0.000
   22        0.000   0.000   0.000   0.000
   23        0.000   0.000   0.000   0.000
   24        0.000   0.000   0.000   0.000
   25        0.000   0.000   0.000   0.000
   26       -0.000   0.000   0.000   0.000
   27        0.000   0.000   0.000   0.000
   28        0.000  -0.000   0.000  -0.000
   29        0.000   0.000   0.000   0.000
   30        0.000   0.000   0.000   0.000
   31        0.000   0.000   0.000   0.000
   32        0.000   0.000   0.000   0.000
   33        0.005   0.014   0.000   0.019
   34        0.038   0.203   0.000   0.241
   35       -0.013  -0.027   0.000  -0.040
   36       -0.000  -0.001   0.000  -0.001
   37        0.000   0.019   0.000   0.020
   38       -0.000  -0.001   0.000  -0.001
   39        0.001   0.051   0.000   0.053
   40        0.001   0.049   0.000   0.051
   41        0.002   0.152   0.000   0.155
   42        0.002   0.144   0.000   0.146
tot          0.037   0.606   0.000   0.642