 vasp.5.4.4.18Apr17-6-g9f103f2a35 (build May 01 2020 14:57:12) complex

 executed on             LinuxIFC date 2021.05.16  22:37:44

 INCAR:
 POTCAR:    PAW_PBE B 06Sep2000
 POTCAR:    PAW_PBE N 08Apr2002
 POTCAR:    PAW_PBE O 08Apr2002

 POTCAR:    PAW_PBE B 06Sep2000
   VRHFIN =B: s2p1

   TITEL  = PAW_PBE B 06Sep2000
   POMASS =   10.811; ZVAL   =    3.000    mass and valenz
   ENMAX  =  318.614; ENMIN  =  238.960 eV

 POTCAR:    PAW_PBE N 08Apr2002
   VRHFIN =N: s2p3

   TITEL  = PAW_PBE N 08Apr2002
   POMASS =   14.001; ZVAL   =    5.000    mass and valenz
   ENMAX  =  400.000; ENMIN  =  300.000 eV

 POTCAR:    PAW_PBE O 08Apr2002
   VRHFIN =O: s2p4

   TITEL  = PAW_PBE O 08Apr2002
   POMASS =   16.000; ZVAL   =    6.000    mass and valenz
   ENMAX  =  400.000; ENMIN  =  300.000 eV

 Optimization of the real space projectors (new method)

 maximal supplied QI-value         = 22.11
 optimisation between [QCUT,QGAM] = [ 11.94, 23.88] = [ 39.92,159.67] Ry
 Optimized for a Real-space Cutoff    1.18 Angstroem

   l    n(q)    QCUT    max X(q) W(low)/X(q) W(high)/X(q)  e(spline)
   0      8    11.939    53.033    0.11E-03    0.34E-03    0.60E-07
   0      8    11.939    34.740    0.11E-03    0.34E-03    0.59E-07
   1      8    11.939    30.949    0.22E-03    0.20E-03    0.17E-06
   1      8    11.939    19.518    0.20E-03    0.18E-03    0.16E-06
 Optimization of the real space projectors (new method)

[...]

   l    n(q)    QCUT    max X(q) W(low)/X(q) W(high)/X(q)  e(spline)
   0     10    11.813    79.467    0.48E-04    0.30E-04    0.67E-06
   0     10    11.813    66.151    0.47E-04    0.30E-04    0.67E-06
   1     10    11.813    20.169    0.11E-03    0.17E-03    0.11E-05
   1     10    11.813    14.454    0.11E-03    0.17E-03    0.11E-05
 Optimization of the real space projectors (new method)

 maximal supplied QI-value         = 24.76
 optimisation between [QCUT,QGAM] = [ 11.88, 24.01] = [ 39.54,161.47] Ry
 Optimized for a Real-space Cutoff    1.18 Angstroem

   l    n(q)    QCUT    max X(q) W(low)/X(q) W(high)/X(q)  e(spline)
   0      8    11.883    20.381    0.86E-04    0.11E-03    0.31E-06
   0      8    11.883    15.268    0.94E-04    0.12E-03    0.33E-06
   1      8    11.883     5.964    0.19E-03    0.18E-04    0.33E-06
   1      8    11.883     5.382    0.17E-03    0.20E-04    0.29E-06
  PAW_PBE B 06Sep2000                   :
  PAW_PBE N 08Apr2002                   :
  PAW_PBE O 08Apr2002                   :

 POSCAR: B N O
  positions in direct lattice
  velocities in cartesian coordinates

 METAGGA = SCAN     LMAXTAU =  6    LMIXTAU =  F

 ion  position               nearest neighbor table
   1  0.111  0.055  0.500-  42 1.45  43 1.45  37 1.45
   2  0.111  0.222  0.500-  37 1.45  44 1.45  38 1.45
   3  0.111  0.389  0.500-  38 1.45  39 1.45  45 1.47
   4  0.111  0.555  0.500-  40 1.45  39 1.45  46 1.47
   5  0.111  0.722  0.500-  41 1.45  47 1.45  40 1.45
   6  0.111  0.889  0.500-  42 1.45  48 1.45  41 1.45
   7  0.278  0.056  0.500-  48 1.45  43 1.45  49 1.45
   8  0.278  0.222  0.500-  43 1.45  44 1.45  50 1.45
   9  0.277  0.388  0.500-  44 1.44  51 1.45  45 1.45
  10  0.274  0.554  0.500-  45 1.42  46 1.42  72 1.50
  11  0.277  0.723  0.500-  47 1.44  46 1.45  52 1.45
  12  0.278  0.889  0.500-  48 1.45  47 1.45  53 1.45
  13  0.444  0.056  0.500-  49 1.45  54 1.45  53 1.45
  14  0.444  0.222  0.500-  49 1.45  55 1.45  50 1.45
  15  0.445  0.389  0.500-  50 1.45  56 1.45  51 1.47
  16  0.446  0.554  0.500-  57 1.42  51 1.42  72 1.50
  17  0.446  0.726  0.500-  58 1.42  52 1.42  72 1.50
  18  0.445  0.889  0.500-  53 1.45  59 1.45  52 1.47
  19  0.611  0.056  0.500-  60 1.45  54 1.45  59 1.45
  20  0.611  0.222  0.500-  61 1.45  54 1.45  55 1.45
  21  0.611  0.389  0.500-  55 1.45  62 1.45  56 1.45
  22  0.611  0.555  0.500-  63 1.45  56 1.45  57 1.47
  23  0.612  0.723  0.500-  64 1.44  57 1.45  58 1.45
  24  0.611  0.889  0.500-  65 1.45  59 1.45  58 1.47
  25  0.778  0.056  0.500-  66 1.45  60 1.45  65 1.45
  26  0.778  0.222  0.500-  61 1.45  60 1.45  67 1.45
  27  0.778  0.389  0.500-  61 1.45  68 1.45  62 1.45
  28  0.778  0.556  0.500-  69 1.45  62 1.45  63 1.45
  29  0.778  0.722  0.500-  70 1.45  64 1.45  63 1.45
  30  0.778  0.889  0.500-  71 1.45  64 1.45  65 1.45
  31  0.944  0.056  0.500-  37 1.45  71 1.45  66 1.45
  32  0.944  0.222  0.500-  66 1.45  67 1.45  38 1.45
  33  0.944  0.389  0.500-  67 1.45  68 1.45  39 1.45
  34  0.944  0.556  0.500-  69 1.45  68 1.45  40 1.45
  35  0.944  0.722  0.500-  41 1.45  70 1.45  69 1.45
  36  0.945  0.889  0.500-  42 1.45  70 1.45  71 1.45
  37  0.056  0.111  0.500-   2 1.45  31 1.45   1 1.45
  38  0.056  0.278  0.500-   3 1.45   2 1.45  32 1.45
  39  0.056  0.445  0.500-   4 1.45   3 1.45  33 1.45
  40  0.056  0.611  0.500-   4 1.45   5 1.45  34 1.45
  41  0.056  0.778  0.500-   5 1.45  35 1.45   6 1.45
  42  0.056  0.944  0.500-  36 1.45   1 1.45   6 1.45
  43  0.222  0.111  0.500-   8 1.45   7 1.45   1 1.45
  44  0.222  0.278  0.500-   9 1.44   2 1.45   8 1.45
  45  0.223  0.445  0.500-  10 1.42   9 1.45   3 1.47
  46  0.223  0.611  0.500-  10 1.42  11 1.45   4 1.47
  47  0.222  0.778  0.500-  11 1.44   5 1.45  12 1.45
  48  0.222  0.944  0.500-  12 1.45   7 1.45   6 1.45
  49  0.389  0.111  0.500-  14 1.45  13 1.45   7 1.45
  50  0.389  0.278  0.500-  15 1.45   8 1.45  14 1.45
  51  0.389  0.445  0.500-  16 1.42   9 1.45  15 1.47
  52  0.389  0.777  0.500-  17 1.42  11 1.45  18 1.47
  53  0.389  0.944  0.500-  18 1.45  12 1.45  13 1.45
  54  0.556  0.111  0.500-  19 1.45  13 1.45  20 1.45
  55  0.556  0.278  0.500-  21 1.45  14 1.45  20 1.45
  56  0.555  0.445  0.500-  22 1.45  15 1.45  21 1.45
  57  0.555  0.611  0.500-  16 1.42  23 1.45  22 1.47
  58  0.555  0.777  0.500-  17 1.42  23 1.45  24 1.47
  59  0.555  0.944  0.500-  18 1.45  24 1.45  19 1.45
  60  0.722  0.111  0.500-  19 1.45  25 1.45  26 1.45
  61  0.722  0.278  0.500-  27 1.45  20 1.45  26 1.45
  62  0.722  0.444  0.500-  21 1.45  28 1.45  27 1.45
  63  0.722  0.611  0.500-  22 1.45  29 1.45  28 1.45
  64  0.722  0.778  0.500-  23 1.44  30 1.45  29 1.45
  65  0.722  0.944  0.500-  24 1.45  30 1.45  25 1.45
  66  0.889  0.111  0.500-  25 1.45  32 1.45  31 1.45
  67  0.889  0.278  0.500-  33 1.45  32 1.45  26 1.45
  68  0.889  0.444  0.500-  33 1.45  34 1.45  27 1.45
  69  0.889  0.611  0.500-  28 1.45  34 1.45  35 1.45
  70  0.889  0.778  0.500-  29 1.45  35 1.45  36 1.45
  71  0.889  0.944  0.500-  30 1.45  31 1.45  36 1.45
  72  0.389  0.611  0.500-  10 1.50  17 1.50  16 1.50

  LATTYP: Found a hexagonal cell.
 ALAT       =    15.0731507304
 C/A-ratio  =     2.3296167479

  Lattice vectors:

 A1 = (   7.5365500567, -13.0537460594,   0.0000000000)
 A2 = (   7.5365500567,  13.0537460594,   0.0000000000)
 A3 = (   0.0000000000,   0.0000000000,  35.1146643856)

Analysis of symmetry for initial positions (statically):
 Subroutine PRICEL returns:
 Original cell was already a primitive cell.

 Routine SETGRP: Setting up the symmetry group for a
 hexagonal supercell.

 Subroutine GETGRP returns: Found 12 space group operations
 (whereof  4 operations were pure point group operations)
 out of a pool of 24 trial point group operations.

The static configuration has the point symmetry C_2v.
 The point group associated with its full space group is D_3h.

Analysis of symmetry for dynamics (positions and initial velocities):
 Subroutine PRICEL returns:
 Original cell was already a primitive cell.

[...]

The dynamic configuration has the point symmetry C_2v.
 The point group associated with its full space group is D_3h.

Analysis of constrained symmetry for selective dynamics:
 Subroutine PRICEL returns:
 Original cell was already a primitive cell.

[...]

The constrained configuration has the point symmetry C_2v.
 The point group associated with its full space group is D_3h.

Analysis of structural, dynamic, and magnetic symmetry:
 Subroutine PRICEL returns:
 Original cell was already a primitive cell.

 Routine SETGRP: Setting up the symmetry group for a
 hexagonal supercell.

 Subroutine GETGRP returns: Found 12 space group operations
 (whereof  4 operations were pure point group operations)
 out of a pool of 24 trial point group operations.

The magnetic configuration has the point symmetry C_2v.
 The point group associated with its full space group is D_3h.

 Subroutine INISYM returns: Found 12 space group operations
 (whereof  4 operations are pure point group operations),
 and found     1 'primitive' translations

 KPOINTS: K-Point Grid

Automatic generation of k-mesh.
Space group operators:
 irot       det(A)        alpha          n_x          n_y          n_z        tau_x        tau_y        tau_z
    1     1.000000     0.000000     1.000000     0.000000     0.000000     0.000000     0.000000     0.000000
    2    -1.000000   180.000000     0.000000     0.000000     1.000000     0.000000     0.000000     0.000000
    3     1.000000   180.000000     0.000000     1.000000     0.000000     0.000000     0.000000     0.000000
    4    -1.000000   180.000000     1.000000     0.000000     0.000000     0.000000     0.000000     0.000000
    5    -1.000000    60.000000     0.000000     0.000000    -1.000000     0.166667     0.000001     0.000000
    6     1.000000   120.000000     0.000000     0.000000    -1.000000     0.000001     0.833334     0.000000
    7     1.000000   120.000000     0.000000     0.000000     1.000000     0.166667     0.000001     0.000000
    8    -1.000000    60.000000     0.000000     0.000000     1.000000     0.000001     0.833334     0.000000
    9    -1.000000   180.000000     0.500002    -0.866024     0.000000     0.166667    -0.000000     0.000000
   10    -1.000000   180.000000    -0.500002    -0.866024     0.000000    -0.000000     0.833334     0.000000
   11     1.000000   180.000000     0.866026     0.499998     0.000000     0.166667    -0.000000     0.000000
   12     1.000000   180.000000     0.866026    -0.499998     0.000000    -0.000000     0.833334     0.000000

 Subroutine IBZKPT returns following result:

 Found      3 irreducible k-points:

 Following reciprocal coordinates:
            Coordinates               Weight
  0.000000  0.000000  0.000000      1.000000
  0.333333  0.000000  0.000000      6.000000
  0.333333  0.333333  0.000000      2.000000

 Following cartesian coordinates:
            Coordinates               Weight
  0.000000  0.000000  0.000000      1.000000
  0.022114 -0.012768  0.000000      6.000000
  0.044229  0.000000  0.000000      2.000000

 SYSTEM =  SiC
 POSCAR =  B N O

 Startparameter for this run:
   NWRITE =      2    write-flag & timer
   PREC   = accura    normal or accurate (medium, high low for compatibility)
   ISTART =      1    job   : 0-new  1-cont  2-samecut
   ICHARG =      0    charge: 1-file 2-atom 10-const
   ISPIN  =      2    spin polarized calculation?
   LNONCOLLINEAR =      F non collinear calculations
   LSORBIT =      F    spin-orbit coupling
   INIWAV =      1    electr: 0-lowe 1-rand  2-diag
   LASPH  =      T    aspherical Exc in radial PAW
   METAGGA=      F    non-selfconsistent MetaGGA calc.

 Electronic Relaxation 1
[...]
   0.195E+00 0.778E+00 0.267E-06   0.185E+00 -.648E+00 -.434E-18   -.107E+00 -.636E-01 0.165E-23   -.204E-02 -.469E-02 -.253E-07
   0.429E-04 0.237E+00 0.550E-05   0.762E-09 -.107E+00 -.339E-19   -.108E-18 -.319E-01 0.662E-23   0.563E-07 -.338E-02 0.823E-09
   -.205E+00 -.119E+00 -.392E-05   0.932E-01 0.546E-01 0.159E-18   0.277E-01 0.160E-01 0.000E+00   0.292E-02 0.169E-02 0.642E-08
   -.577E+00 -.559E+00 0.504E-05   0.654E+00 0.165E+00 0.442E-18   0.153E-02 0.125E+00 -.165E-23   0.304E-02 0.411E-02 0.217E-08
   -.586E+00 -.105E+00 -.150E-05   0.105E+01 -.399E+00 0.837E-19   -.867E-01 0.140E+00 0.662E-23   0.370E-02 0.766E-03 0.459E-08
   -.203E+00 0.560E+00 0.599E-05   0.873E+00 -.711E+00 -.126E-18   -.165E+00 0.491E-02 -.331E-23   0.119E-02 -.358E-02 0.113E-07
   0.466E-04 0.461E+00 0.520E-05   -.265E-10 -.504E+00 0.940E-18   -.271E-18 -.128E-01 0.000E+00   -.350E-07 -.294E-02 -.210E-07
   -.195E+00 0.778E+00 0.117E-05   -.185E+00 -.648E+00 0.849E-18   0.107E+00 -.636E-01 -.132E-22   0.204E-02 -.469E-02 0.712E-08
   -.496E+00 0.286E+00 0.887E-06   -.674E-01 0.397E-01 0.176E-17   0.174E+00 -.101E+00 0.000E+00   0.496E-02 -.286E-02 0.148E-07
   -.772E+00 -.221E+00 -.410E-05   0.470E+00 0.485E+00 0.395E-18   0.109E+00 -.610E-01 0.000E+00   0.508E-02 0.577E-03 0.104E-07
   -.399E+00 -.231E+00 -.377E-05   0.437E+00 0.253E+00 0.298E-18   0.111E-01 0.638E-02 0.662E-23   0.254E-02 0.147E-02 0.108E-07
   -.160E+00 0.921E-01 0.214E-05   0.338E+00 -.194E+00 0.444E-19   -.253E-01 0.146E-01 0.331E-23   0.847E-03 -.489E-03 0.740E-08
   0.627E+00 0.505E+00 -.109E-05   -.116E+01 -.788E+00 0.201E-17   0.159E+00 0.981E-01 0.000E+00   -.657E-03 -.533E-02 -.540E-07
   0.193E+01 0.566E+00 -.275E-05   -.334E+01 -.688E+00 0.316E-17   0.481E+00 0.129E+00 0.529E-22   -.521E-02 -.708E-02 0.204E-06
   0.280E+01 -.162E+01 -.175E-04   -.433E+01 0.250E+01 0.319E-17   0.486E+00 -.280E+00 0.000E+00   0.290E-02 -.168E-02 0.767E-07
   0.472E+00 -.195E+01 -.431E-05   -.107E+01 0.323E+01 0.551E-18   0.129E+00 -.481E+00 -.265E-22   0.352E-02 0.805E-02 0.429E-07
   -.125E+00 -.797E+00 0.717E-05   0.104E+00 0.139E+01 -.105E-17   -.527E-02 -.187E+00 0.000E+00   0.428E-02 0.323E-02 -.341E-07
   -.159E-02 -.505E-03 0.142E-06   -.109E-08 -.785E-03 0.122E-17   -.136E-19 -.136E-19 0.000E+00   -.760E-07 -.887E-07 -.293E-10
   0.750E+00 0.291E+00 0.235E-05   -.126E+01 -.608E+00 0.118E-17   0.165E+00 0.889E-01 0.000E+00   -.494E-02 0.209E-02 0.535E-07
   0.327E+01 0.189E+01 -.122E-04   -.501E+01 -.289E+01 0.234E-17   0.710E+00 0.410E+00 0.000E+00   -.217E-01 -.126E-01 0.245E-07
   0.123E+02 0.250E+01 -.206E-05   -.165E+02 -.352E+01 0.270E-17   0.234E+01 0.101E+01 0.000E+00   -.113E-01 0.202E-02 0.593E-07
   0.399E+01 -.119E+02 -.170E-04   -.520E+01 0.160E+02 0.150E-17   0.294E+00 -.253E+01 0.000E+00   -.742E-02 0.881E-02 0.426E-07
   -.161E-02 -.378E+01 0.265E-04   0.135E-08 0.579E+01 -.101E-17   0.000E+00 -.820E+00 0.000E+00   -.385E-07 0.251E-01 -.635E-07
   0.122E+00 -.797E+00 -.561E-07   -.104E+00 0.139E+01 -.556E-18   0.527E-02 -.187E+00 0.000E+00   -.428E-02 0.323E-02 -.618E-07
   0.335E+00 -.195E+00 0.568E-05   -.370E+00 0.213E+00 -.203E-17   0.411E-01 -.237E-01 0.000E+00   -.102E-01 0.589E-02 0.138E-06
   0.145E+01 0.139E+01 0.492E-05   -.226E+01 -.255E+01 0.474E-18   0.352E+00 0.352E+00 0.000E+00   -.874E-02 -.975E-03 -.205E-06
   0.833E+01 0.942E+01 0.115E-04   -.113E+02 -.125E+02 0.156E-17   0.205E+01 0.152E+01 0.000E+00   -.392E-02 -.108E-01 -.471E-07
   -.400E+01 -.119E+02 0.164E-04   0.520E+01 0.160E+02 -.157E-17   -.294E+00 -.253E+01 0.000E+00   0.742E-02 0.881E-02 0.130E-08
   -.475E+00 -.195E+01 0.317E-05   0.107E+01 0.323E+01 -.289E-17   -.129E+00 -.481E+00 0.000E+00   -.352E-02 0.805E-02 -.140E-07
   -.196E+00 -.510E+00 0.167E-05   0.622E+00 0.836E+00 -.353E-17   -.742E-01 -.102E+00 0.106E-21   -.182E-01 -.317E-02 0.101E-06
   0.343E+00 0.423E+00 -.614E-07   -.414E+00 -.958E+00 -.113E-17   0.516E-01 0.116E+00 -.529E-22   -.634E-02 0.173E-01 -.157E-06
   -.160E-02 0.323E+01 0.292E-04   -.108E-08 -.500E+01 -.190E-18   0.000E+00 0.561E+00 0.000E+00   0.159E-06 0.335E-02 -.110E-06
   -.833E+01 0.942E+01 -.611E-05   0.113E+02 -.125E+02 0.490E-19   -.205E+01 0.152E+01 0.000E+00   0.392E-02 -.108E-01 -.560E-07
   -.123E+02 0.250E+01 -.270E-05   0.165E+02 -.352E+01 -.180E-17   -.234E+01 0.101E+01 0.000E+00   0.113E-01 0.202E-02 -.332E-10
   -.280E+01 -.162E+01 -.119E-04   0.433E+01 0.250E+01 -.317E-17   -.486E+00 -.280E+00 0.000E+00   -.290E-02 -.168E-02 0.338E-07
   -.540E+00 0.862E-01 -.726E-06   0.104E+01 0.120E+00 -.223E-17   -.126E+00 -.131E-01 0.000E+00   -.118E-01 -.142E-01 -.888E-07
   -.159E-02 -.516E-03 0.188E-06   0.132E-08 -.767E-03 -.171E-17   -.271E-19 0.000E+00 0.000E+00   0.491E-07 -.704E-09 -.589E-11
   -.346E+00 0.423E+00 0.812E-05   0.414E+00 -.958E+00 0.272E-18   -.516E-01 0.116E+00 0.000E+00   0.634E-02 0.173E-01 -.291E-07
   -.146E+01 0.139E+01 -.107E-05   0.226E+01 -.255E+01 -.114E-17   -.352E+00 0.352E+00 0.265E-22   0.874E-02 -.975E-03 -.413E-07
   -.327E+01 0.189E+01 -.148E-04   0.501E+01 -.289E+01 -.981E-18   -.710E+00 0.410E+00 0.662E-23   0.217E-01 -.126E-01 0.390E-07
   -.193E+01 0.566E+00 -.136E-06   0.334E+01 -.688E+00 -.182E-17   -.481E+00 0.129E+00 -.265E-22   0.521E-02 -.708E-02 0.138E-07
   -.160E-02 0.388E+00 0.910E-05   -.283E-09 -.428E+00 0.101E-17   0.000E+00 0.475E-01 0.000E+00   -.972E-08 -.118E-01 -.149E-06
   0.537E+00 0.862E-01 -.389E-05   -.104E+01 0.120E+00 0.233E-17   0.126E+00 -.131E-01 0.106E-21   0.118E-01 -.142E-01 0.124E-06
   0.193E+00 -.510E+00 -.427E-05   -.622E+00 0.836E+00 0.124E-17   0.742E-01 -.102E+00 0.000E+00   0.182E-01 -.317E-02 0.490E-07
   -.338E+00 -.195E+00 -.146E-04   0.370E+00 0.213E+00 0.594E-18   -.411E-01 -.237E-01 -.265E-22   0.102E-01 0.589E-02 0.105E-07
   -.754E+00 0.291E+00 -.380E-05   0.126E+01 -.608E+00 -.114E-17   -.165E+00 0.889E-01 0.000E+00   0.494E-02 0.209E-02 0.623E-07
   -.630E+00 0.505E+00 -.347E-05   0.116E+01 -.788E+00 0.385E-18   -.159E+00 0.981E-01 0.000E+00   0.657E-03 -.533E-02 0.341E-07
   -.279E-02 -.109E-02 0.117E-07   -.145E-09 -.870E-03 0.605E-18   0.163E-18 0.949E-19 0.000E+00   0.143E-07 -.687E-07 -.407E-10
   -.564E-01 -.357E-01 0.476E-07   0.705E-13 0.531E-13 0.000E+00   -.164E-14 -.860E-15 0.173E-21   0.134E-08 -.126E-06 -.557E-09

 POSITION                                       TOTAL-FORCE (eV/Angst)
      1.25646     -0.72500     17.55733        -0.004718     -0.002724     -0.000000
      2.51147      1.45132     17.55733         0.002860      0.002513     -0.000000
      3.76405      3.63026     17.55733        -0.007651     -0.003740     -0.000000
      5.01860      5.80321     17.55733        -0.000587      0.008496     -0.000000
      6.27932      7.97746     17.55733        -0.000746     -0.003733     -0.000000
      7.53656     10.15249     17.55733         0.000000      0.005448     -0.000000
      2.51284     -2.90121     17.55733         0.004754     -0.002745     -0.000000
      3.76870     -0.72628     17.55733         0.003606      0.001220      0.000000
      5.01972      1.44773     17.55733        -0.006717     -0.003878     -0.000000
      6.24368      3.64728     17.55733         0.002408     -0.001390     -0.000000
      7.53656      5.80703     17.55733         0.000000      0.007756      0.000000
      8.79379      7.97746     17.55733         0.000746     -0.003733     -0.000000
      3.76961     -5.07663     17.55733         0.002098     -0.006250     -0.000000
      5.02519     -2.90190     17.55733         0.006462      0.001308     -0.000000
      6.28201     -0.73098     17.55733        -0.007064     -0.004756     -0.000000
      7.53656      1.40795     17.55733         0.000000      0.002780     -0.000000
      8.82943      3.64728     17.55733        -0.002408     -0.001390      0.000000
     10.05451      5.80321     17.55733         0.000587      0.008496     -0.000000
      5.02678     -7.25069     17.55733         0.008142      0.004701     -0.000000
      6.28092     -5.07672     17.55733         0.010728     -0.006194     -0.000000
      7.53656     -2.90362     17.55733         0.000000     -0.009402     -0.000000
      8.79110     -0.73098     17.55733         0.007064     -0.004756      0.000000
     10.05339      1.44773     17.55733         0.006717     -0.003878     -0.000000
     11.30906      3.63026     17.55733         0.007651     -0.003740      0.000000
      6.28098     -9.42647     17.55733        -0.004364      0.004942     -0.000000
      7.53656     -7.25156     17.55733         0.000000      0.012387     -0.000000
      8.79219     -5.07672     17.55733        -0.010728     -0.006194     -0.000000
     10.04792     -2.90190     17.55733        -0.006462      0.001308     -0.000000
     11.30441     -0.72628     17.55733        -0.003606      0.001220     -0.000000
     12.56164      1.45132     17.55733        -0.002860      0.002513     -0.000000
      7.53656    -11.60258     17.55733         0.000000      0.005489     -0.000000
      8.79213     -9.42647     17.55733         0.004364      0.004942     -0.000000
     10.04633     -7.25069     17.55733        -0.008142      0.004701     -0.000000
     11.30350     -5.07663     17.55733        -0.002098     -0.006250      0.000000
     12.56027     -2.90121     17.55733        -0.004754     -0.002745     -0.000000
     13.81665     -0.72500     17.55733         0.004718     -0.002724     -0.000000
      1.25763      0.72648     17.55733         0.003139     -0.002832     -0.000000
      2.51649      2.90183     17.55733         0.005441     -0.001938     -0.000000
      3.77066      5.07508     17.55733         0.008167     -0.004715      0.000000
      5.02566      7.24786     17.55733         0.004399     -0.003743     -0.000000
      6.28013      9.42574     17.55733         0.004022     -0.001303      0.000000
      7.53656     11.60333     17.55733         0.000000      0.000000     -0.000000
      2.51406     -1.44973     17.55733        -0.000883      0.004135      0.000000
      3.77305      0.72796     17.55733        -0.004480     -0.002586     -0.000000
      5.03758      2.89973     17.55733        -0.006206      0.002396     -0.000000
      6.28802      5.06557     17.55733        -0.005179      0.004177     -0.000000
      7.53656      7.24657     17.55733         0.000000      0.005173     -0.000000
      8.79299      9.42574     17.55733        -0.004022     -0.001303     -0.000000
      3.76893     -3.62642     17.55733        -0.003446      0.001990     -0.000000
      5.02738     -1.44719     17.55733         0.001042      0.005681     -0.000000
      6.28611      0.73719     17.55733        -0.001028     -0.006573     -0.000000
      8.78509      5.06557     17.55733         0.005179      0.004177     -0.000000
     10.04745      7.24786     17.55733        -0.004399     -0.003743     -0.000000
      5.02419     -5.80217     17.55733        -0.010722     -0.006669      0.000000
      6.28081     -3.62563     17.55733         0.000415      0.012620     -0.000000
      7.53656     -1.44766     17.55733         0.000000      0.009430      0.000000
      8.78700      0.73719     17.55733         0.001028     -0.006573      0.000000
     10.03553      2.89973     17.55733         0.006206      0.002396      0.000000
     11.30245      5.07508     17.55733        -0.008167     -0.004715     -0.000000
      6.27993     -7.97719     17.55733        -0.011136     -0.005951     -0.000000
      7.53656     -5.80167     17.55733         0.000000      0.000000     -0.000000
      8.79230     -3.62563     17.55733        -0.000415      0.012620     -0.000000
     10.04573     -1.44719     17.55733        -0.001042      0.005681     -0.000000
     11.30006      0.72796     17.55733         0.004480     -0.002586     -0.000000
     12.55662      2.90183     17.55733        -0.005441     -0.001938     -0.000000
      7.53656    -10.15216     17.55733         0.000000     -0.003979     -0.000000
      8.79318     -7.97719     17.55733         0.011136     -0.005951     -0.000000
     10.04892     -5.80217     17.55733         0.010722     -0.006669     -0.000000
     11.30418     -3.62642     17.55733         0.003446      0.001990     -0.000000
     12.55905     -1.44973     17.55733         0.000883      0.004135     -0.000000
     13.81548      0.72648     17.55733        -0.003139     -0.002832     -0.000000
      7.53656      2.90083     17.55733         0.000000     -0.000000     -0.000000
    total drift:                               -0.056411     -0.035749      0.000000

  FREE ENERGIE OF THE ION-ELECTRON SYSTEM (eV)
  free  energy   TOTEN  =      -693.29517939 eV

  energy  without entropy=     -693.29517939  energy(sigma->0) =     -693.29517939

 d Force = 0.9474979E-04[-0.101E-03, 0.291E-03]  d Energy = 0.8679101E-04 0.796E-05
 d Force =-0.9037098E-01[-0.921E-01,-0.886E-01]  d Ewald  =-0.9037091E-01-0.634E-07

 Conjugate gradient step on ions:
 trial-energy change:   -0.000087  1 .order   -0.000095   -0.000291    0.000101
  (g-gl).g = 0.468E-03      g.g   = 0.407E-03  gl.gl    = 0.937E-03
 g(Force)  = 0.407E-03   g(Stress)= 0.000E+00 ortho     =-0.254E-04
 gamma     =   0.49932
 trial     =   0.73703
 opt step  =   0.54672  (harmonic =   0.54672) maximal distance =0.00079744
 next E    =  -693.295200   (d E  =  -0.00011)

 reached required accuracy - stopping structural energy minimisation
 writing wavefunctions

 total charge

[...]

 magnetization (x)

# of ion       s       p       d       tot
    1       -0.000   0.000   0.000  -0.000
    2       -0.000  -0.000   0.000  -0.000
    3       -0.000  -0.000   0.000  -0.000
    4       -0.000  -0.000   0.000  -0.000
    5       -0.000  -0.000   0.000  -0.000
    6       -0.000   0.000   0.000  -0.000
    7       -0.000   0.000   0.000  -0.000
    8       -0.000   0.000   0.000  -0.000
    9       -0.000   0.000   0.000   0.000
   10        0.000   0.000   0.000   0.000
   11       -0.000   0.000   0.000   0.000
   12       -0.000  -0.000   0.000  -0.000
   13       -0.000  -0.000   0.000  -0.000
   14       -0.000  -0.000   0.000  -0.000
   15       -0.000  -0.000   0.000  -0.000
   16        0.000   0.000   0.000   0.000
   17        0.000   0.000   0.000   0.000
   18       -0.000  -0.000   0.000  -0.000
   19       -0.000   0.000   0.000  -0.000
   20       -0.000   0.000   0.000  -0.000
   21       -0.000  -0.000   0.000  -0.000
   22       -0.000  -0.000   0.000  -0.000
   23       -0.000   0.000   0.000   0.000
   24       -0.000  -0.000   0.000  -0.000
   25       -0.000  -0.000   0.000  -0.000
   26       -0.000   0.000   0.000   0.000
   27       -0.000   0.000   0.000   0.000
   28       -0.000  -0.000   0.000  -0.000
   29       -0.000  -0.000   0.000  -0.000
   30       -0.000  -0.000   0.000  -0.000
   31       -0.000   0.000   0.000  -0.000
   32       -0.000  -0.000   0.000  -0.000
   33       -0.000  -0.000   0.000  -0.000
   34       -0.000  -0.000   0.000  -0.000
   35       -0.000  -0.000   0.000  -0.000
   36       -0.000   0.000   0.000  -0.000
   37        0.000   0.000   0.000   0.000
   38       -0.000   0.000   0.000   0.000
   39       -0.000  -0.000   0.000  -0.000
   40        0.000  -0.000   0.000  -0.000
   41        0.000  -0.000   0.000   0.000
   42        0.000   0.000   0.000   0.000
   43        0.000  -0.000   0.000  -0.000
   44       -0.000  -0.000   0.000  -0.000
   45       -0.000   0.000   0.000   0.000
   46       -0.000   0.000   0.000   0.000
   47       -0.000  -0.000   0.000  -0.000
   48        0.000   0.000   0.000   0.000
   49       -0.000   0.000   0.000  -0.000
   50        0.000  -0.000   0.000  -0.000
   51       -0.000   0.000   0.000   0.000
   52       -0.000   0.000   0.000   0.000
   53       -0.000  -0.000   0.000  -0.000
   54       -0.000  -0.000   0.000  -0.000
   55       -0.000   0.000   0.000   0.000
   56       -0.000  -0.000   0.000  -0.000
   57       -0.000   0.000   0.000   0.000
   58        0.000  -0.000   0.000  -0.000
   59       -0.000  -0.000   0.000  -0.000
   60        0.000  -0.000   0.000  -0.000
   61       -0.000  -0.000   0.000  -0.000
   62       -0.000  -0.000   0.000  -0.000
   63        0.000  -0.000   0.000  -0.000
   64       -0.000  -0.000   0.000  -0.000
   65        0.000   0.000   0.000   0.000
   66       -0.000   0.000   0.000  -0.000
   67        0.000   0.000   0.000   0.000
   68       -0.000   0.000   0.000   0.000
   69       -0.000  -0.000   0.000  -0.000
   70        0.000   0.000   0.000   0.000
   71        0.000   0.000   0.000   0.000
   72        0.000  -0.000   0.000  -0.000
tot         -0.000  -0.000   0.000  -0.000