 vasp.5.4.4.18Apr17-6-g9f103f2a35 (build May 01 2020 14:57:12) complex

 executed on             LinuxIFC date 2021.07.28  09:30:39

 INCAR:
 POTCAR:    PAW_PBE B 06Sep2000
 POTCAR:    PAW_PBE H 15Jun2001
 POTCAR:    PAW_PBE N 08Apr2002
 POTCAR:    PAW_PBE O 08Apr2002

 POTCAR:    PAW_PBE B 06Sep2000
   VRHFIN =B: s2p1

   TITEL  = PAW_PBE B 06Sep2000
   POMASS =   10.811; ZVAL   =    3.000    mass and valenz
   ENMAX  =  318.614; ENMIN  =  238.960 eV

 POTCAR:    PAW_PBE H 15Jun2001
   VRHFIN =H: ultrasoft test

   TITEL  = PAW_PBE H 15Jun2001
   POMASS =    1.000; ZVAL   =    1.000    mass and valenz
   ENMAX  =  250.000; ENMIN  =  200.000 eV

 POTCAR:    PAW_PBE N 08Apr2002
   VRHFIN =N: s2p3

   TITEL  = PAW_PBE N 08Apr2002
   POMASS =   14.001; ZVAL   =    5.000    mass and valenz
   ENMAX  =  400.000; ENMIN  =  300.000 eV

 POTCAR:    PAW_PBE O 08Apr2002
   VRHFIN =O: s2p4

   TITEL  = PAW_PBE O 08Apr2002
   POMASS =   16.000; ZVAL   =    6.000    mass and valenz
   ENMAX  =  400.000; ENMIN  =  300.000 eV

 Optimization of the real space projectors (new method)

 maximal supplied QI-value         = 22.11
 optimisation between [QCUT,QGAM] = [ 11.94, 23.88] = [ 39.92,159.67] Ry
 Optimized for a Real-space Cutoff    1.18 Angstroem

   l    n(q)    QCUT    max X(q) W(low)/X(q) W(high)/X(q)  e(spline)
   0      8    11.939    53.033    0.11E-03    0.34E-03    0.60E-07
   0      8    11.939    34.740    0.11E-03    0.34E-03    0.59E-07
   1      8    11.939    30.949    0.22E-03    0.20E-03    0.17E-06
   1      8    11.939    19.518    0.20E-03    0.18E-03    0.16E-06
 Optimization of the real space projectors (new method)

[...]

   l    n(q)    QCUT    max X(q) W(low)/X(q) W(high)/X(q)  e(spline)
   0     10    11.813    79.467    0.48E-04    0.30E-04    0.67E-06
   0     10    11.813    66.151    0.47E-04    0.30E-04    0.67E-06
   1     10    11.813    20.169    0.11E-03    0.17E-03    0.11E-05
   1     10    11.813    14.454    0.11E-03    0.17E-03    0.11E-05
 Optimization of the real space projectors (new method)

 maximal supplied QI-value         = 24.76
 optimisation between [QCUT,QGAM] = [ 11.88, 24.01] = [ 39.54,161.47] Ry
 Optimized for a Real-space Cutoff    1.18 Angstroem

   l    n(q)    QCUT    max X(q) W(low)/X(q) W(high)/X(q)  e(spline)
   0      8    11.883    20.381    0.86E-04    0.11E-03    0.31E-06
   0      8    11.883    15.268    0.94E-04    0.12E-03    0.33E-06
   1      8    11.883     5.964    0.19E-03    0.18E-04    0.33E-06
   1      8    11.883     5.382    0.17E-03    0.20E-04    0.29E-06
  PAW_PBE B 06Sep2000                   :
  PAW_PBE H 15Jun2001                   :
  PAW_PBE N 08Apr2002                   :
  PAW_PBE O 08Apr2002                   :

 POSCAR: B H N O
  positions in direct lattice
  velocities in cartesian coordinates

 METAGGA = SCAN     LMAXTAU =  6    LMIXTAU =  F

 ion  position               nearest neighbor table
   1  0.118  0.505  0.390-  85 1.37  55 1.44  49 1.45
   2  0.117  0.500  0.432-  49 1.44  56 1.44  50 1.45
   3  0.116  0.499  0.473-  50 1.44  51 1.45  57 1.45
   4  0.115  0.499  0.514-  51 1.44  52 1.44  58 1.45
   5  0.115  0.500  0.556-  53 1.44  59 1.45  52 1.45
   6  0.115  0.500  0.597-  60 1.43  54 1.43  53 1.45
   7  0.285  0.511  0.391-  86 1.37  61 1.44  55 1.45
   8  0.284  0.503  0.432-  55 1.44  62 1.44  56 1.45
   9  0.283  0.500  0.473-  56 1.44  63 1.45  57 1.45
  10  0.282  0.500  0.514-  57 1.44  58 1.44  64 1.45
  11  0.282  0.500  0.556-  59 1.44  65 1.45  58 1.45
  12  0.282  0.500  0.597-  66 1.43  60 1.43  59 1.45
  13  0.452  0.508  0.390-  87 1.37  67 1.44  61 1.45
  14  0.450  0.504  0.432-  61 1.44  68 1.44  62 1.45
  15  0.449  0.501  0.473-  62 1.44  69 1.45  63 1.45
  16  0.449  0.500  0.514-  63 1.44  64 1.44  70 1.45
  17  0.448  0.500  0.556-  65 1.44  71 1.45  64 1.45
  18  0.448  0.500  0.597-  66 1.43  72 1.43  65 1.45
  19  0.618  0.502  0.390-  88 1.37  73 1.44  67 1.45
  20  0.617  0.502  0.432-  67 1.44  74 1.44  68 1.45
  21  0.616  0.501  0.473-  68 1.44  75 1.45  69 1.45
  22  0.615  0.500  0.514-  69 1.44  70 1.44  76 1.45
  23  0.615  0.500  0.556-  71 1.44  77 1.45  70 1.45
  24  0.615  0.500  0.597-  78 1.43  72 1.43  71 1.45
  25  0.785  0.497  0.390-  89 1.38  79 1.44  73 1.45
  26  0.784  0.499  0.432-  73 1.44  80 1.44  74 1.45
  27  0.783  0.500  0.473-  74 1.44  75 1.45  81 1.45
  28  0.782  0.500  0.514-  75 1.44  76 1.44  82 1.45
  29  0.782  0.500  0.556-  77 1.44  83 1.45  76 1.45
  30  0.782  0.500  0.597-  84 1.43  78 1.43  77 1.45
  31  0.952  0.497  0.390-  90 1.38  49 1.44  79 1.45
  32  0.950  0.498  0.432-  79 1.44  50 1.44  80 1.45
  33  0.949  0.499  0.473-  80 1.44  81 1.45  51 1.45
  34  0.949  0.499  0.514-  81 1.44  82 1.44  52 1.45
  35  0.948  0.500  0.556-  83 1.44  53 1.45  82 1.45
  36  0.948  0.500  0.597-  54 1.43  84 1.43  83 1.45
  37  0.096  0.500  0.630-  54 1.01
  38  0.263  0.500  0.630-  60 1.01
  39  0.430  0.500  0.630-  66 1.01
  40  0.596  0.500  0.630-  72 1.01
  41  0.763  0.500  0.630-  78 1.01
  42  0.930  0.500  0.630-  84 1.01
  43  0.109  0.510  0.357-  85 0.98
  44  0.276  0.517  0.357-  86 0.98
  45  0.443  0.510  0.357-  87 0.98
  46  0.609  0.502  0.357-  88 0.98
  47  0.776  0.495  0.357-  89 0.98
  48  0.943  0.497  0.357-  90 0.98
  49  0.062  0.500  0.404-  31 1.44   2 1.44   1 1.45
  50  0.061  0.499  0.445-   3 1.44  32 1.44   2 1.45
  51  0.060  0.499  0.487-   4 1.44   3 1.45  33 1.45
  52  0.060  0.500  0.528-   4 1.44   5 1.45  34 1.45
  53  0.059  0.500  0.569-   5 1.44  35 1.45   6 1.45
  54  0.058  0.500  0.610-  37 1.01  36 1.43   6 1.43
  55  0.229  0.507  0.404-   1 1.44   8 1.44   7 1.45
  56  0.228  0.501  0.445-   9 1.44   2 1.44   8 1.45
  57  0.227  0.500  0.487-  10 1.44   9 1.45   3 1.45
  58  0.226  0.500  0.528-  10 1.44  11 1.45   4 1.45
  59  0.226  0.500  0.569-  11 1.44   5 1.45  12 1.45
  60  0.224  0.500  0.610-  38 1.01   6 1.43  12 1.43
[...]
  76  0.726  0.500  0.528-  28 1.44  29 1.45  22 1.45
  77  0.726  0.500  0.569-  29 1.44  23 1.45  30 1.45
  78  0.725  0.500  0.610-  41 1.01  24 1.43  30 1.43
  79  0.896  0.497  0.404-  25 1.44  32 1.44  31 1.45
  80  0.894  0.498  0.445-  33 1.44  26 1.44  32 1.45
  81  0.893  0.499  0.487-  34 1.44  33 1.45  27 1.45
  82  0.893  0.500  0.528-  34 1.44  35 1.45  28 1.45
  83  0.893  0.500  0.569-  35 1.44  29 1.45  36 1.45
  84  0.891  0.500  0.610-  42 1.01  30 1.43  36 1.43
  85  0.064  0.507  0.364-  43 0.98   1 1.37
  86  0.230  0.516  0.364-  44 0.98   7 1.37
  87  0.397  0.512  0.364-  45 0.98  13 1.37
  88  0.564  0.504  0.364-  46 0.98  19 1.37
  89  0.730  0.496  0.364-  47 0.98  25 1.38
  90  0.897  0.494  0.364-  48 0.98  31 1.38

  LATTYP: Found a simple orthorhombic cell.
 ALAT       =    15.0000000000
 B/A-ratio  =     1.0048740542
 C/A-ratio  =     3.4809850626

  Lattice vectors:

 A1 = (   0.0000000000, -15.0000000000,   0.0000000000)
 A2 = (  -7.5365500000,   0.0000000000,  13.0537000000)
 A3 = ( -45.2192000000,   0.0000000000, -26.1076000000)

Analysis of symmetry for initial positions (statically):
 Subroutine PRICEL returns:
 Original cell was already a primitive cell.

 Routine SETGRP: Setting up the symmetry group for a
 simple orthorhombic supercell.

 Subroutine GETGRP returns: Found  1 space group operations
 (whereof  1 operations were pure point group operations)
 out of a pool of  8 trial point group operations.

The static configuration has the point symmetry C_1 .

Analysis of symmetry for dynamics (positions and initial velocities):
 Subroutine PRICEL returns:
 Original cell was already a primitive cell.

[...]

The dynamic configuration has the point symmetry C_1 .

Analysis of constrained symmetry for selective dynamics:
 Subroutine PRICEL returns:
 Original cell was already a primitive cell.

[...]

The constrained configuration has the point symmetry C_1 .

Analysis of structural, dynamic, and magnetic symmetry:
 Subroutine PRICEL returns:
 Original cell was already a primitive cell.

 Routine SETGRP: Setting up the symmetry group for a
 simple orthorhombic supercell.

 Subroutine GETGRP returns: Found  1 space group operations
 (whereof  1 operations were pure point group operations)
 out of a pool of  8 trial point group operations.

The magnetic configuration has the point symmetry C_1 .

 Subroutine INISYM returns: Found  1 space group operations
 (whereof  1 operations are pure point group operations),
 and found     1 'primitive' translations

 KPOINTS: K-Point Grid

Automatic generation of k-mesh.
Space group operators:
 irot       det(A)        alpha          n_x          n_y          n_z        tau_x        tau_y        tau_z
    1     1.000000     0.000000     1.000000     0.000000     0.000000     0.000000     0.000000     0.000000

 Subroutine IBZKPT returns following result:

 Found      8 irreducible k-points:

 Following reciprocal coordinates:
            Coordinates               Weight
  0.125000  0.125000 -0.000000      2.000000
  0.375000  0.125000  0.000000      2.000000
 -0.375000  0.125000  0.000000      2.000000
 -0.125000  0.125000  0.000000      2.000000
  0.125000  0.375000 -0.000000      2.000000
  0.375000  0.375000  0.000000      2.000000
 -0.375000  0.375000  0.000000      2.000000
 -0.125000  0.375000  0.000000      2.000000

 Following cartesian coordinates:
            Coordinates               Weight
  0.008293  0.008333 -0.004788      2.000000
  0.024879  0.008333 -0.014364      2.000000
 -0.024879  0.008333  0.014364      2.000000
 -0.008293  0.008333  0.004788      2.000000
  0.008293  0.025000 -0.004788      2.000000
  0.024879  0.025000 -0.014364      2.000000
 -0.024879  0.025000  0.014364      2.000000
 -0.008293  0.025000  0.004788      2.000000

 SYSTEM =  SiC
 POSCAR =  B H N O

 Startparameter for this run:
   NWRITE =      2    write-flag & timer
   PREC   = accura    normal or accurate (medium, high low for compatibility)
   ISTART =      1    job   : 0-new  1-cont  2-samecut
   ICHARG =      0    charge: 1-file 2-atom 10-const
   ISPIN  =      2    spin polarized calculation?
   LNONCOLLINEAR =      F non collinear calculations
   LSORBIT =      F    spin-orbit coupling
   INIWAV =      1    electr: 0-lowe 1-rand  2-diag
   LASPH  =      T    aspherical Exc in radial PAW
   METAGGA=      F    non-selfconsistent MetaGGA calc.

 Electronic Relaxation 1
   ENCUT  =  550.0 eV  40.42 Ry    6.36 a.u.  28.82 28.68115.29*2*pi/ulx,y,z
   ENINI  =  550.0     initial cutoff
   ENAUG  =  627.1 eV  augmentation charge cutoff
   NELM   =    100;   NELMIN=  2; NELMDL=  0     # of ELM steps
   EDIFF  = 0.1E-04   stopping-criterion for ELM
   LREAL  =      T    real-space projection
   NLSPLINE    = F    spline interpolate recip. space projectors
   LCOMPAT=      F    compatible to vasp.4.4
   GGA_COMPAT  = T    GGA compatible to vasp.4.4-vasp.4.6
   LMAXPAW     = -100 max onsite density
   LMAXMIX     =    2 max onsite mixed and CHGCAR
   VOSKOWN=      0    Vosko Wilk Nusair interpolation
   ROPT   =   -0.00025  -0.00025  -0.00025  -0.00025
 Ionic relaxation
   EDIFFG = -.2E-01   stopping-criterion for IOM
   NSW    =    500    number of steps for IOM
[...]
   -.257E+03 0.687E-01 -.148E+03   0.256E+03 -.690E-01 0.148E+03   -.246E+00 -.751E-03 -.141E+00   -.172E-02 0.203E-03 -.120E-02
   0.189E+03 0.587E+01 0.110E+03   -.188E+03 -.580E+01 -.110E+03   -.135E+01 -.863E-01 -.599E+00   0.793E-03 -.192E-03 0.361E-03
   0.107E+03 0.360E+01 0.612E+02   -.107E+03 -.358E+01 -.611E+02   -.943E-01 -.252E-01 -.157E-01   -.234E-03 -.444E-03 -.569E-03
   0.251E+02 0.142E+01 0.142E+02   -.250E+02 -.141E+01 -.142E+02   -.106E-01 -.390E-02 -.905E-02   0.105E-02 -.665E-03 0.521E-03
   -.548E+02 0.585E+00 -.314E+02   0.549E+02 -.581E+00 0.314E+02   -.891E-02 -.280E-03 -.287E-01   -.874E-03 -.321E-03 -.670E-03
   -.141E+03 0.325E+00 -.808E+02   0.141E+03 -.323E+00 0.808E+02   -.669E-01 -.585E-03 -.571E-01   -.144E-02 -.641E-04 -.835E-03
   -.257E+03 -.360E-02 -.148E+03   0.256E+03 0.341E-02 0.148E+03   -.246E+00 -.711E-03 -.142E+00   -.146E-02 0.227E-03 -.789E-03
   -.162E+03 -.179E+00 -.935E+02   0.168E+03 0.189E+00 0.968E+02   -.662E+01 -.121E-01 -.383E+01   -.364E-03 0.117E-03 0.195E-03
   -.162E+03 -.179E+00 -.935E+02   0.168E+03 0.188E+00 0.968E+02   -.662E+01 -.112E-01 -.383E+01   -.204E-03 0.132E-03 0.399E-03
   -.162E+03 -.156E+00 -.935E+02   0.168E+03 0.165E+00 0.968E+02   -.662E+01 -.103E-01 -.383E+01   -.835E-04 0.120E-03 0.339E-03
   -.162E+03 -.132E+00 -.935E+02   0.168E+03 0.140E+00 0.968E+02   -.662E+01 -.979E-02 -.383E+01   -.189E-03 0.105E-03 0.217E-03
   -.162E+03 -.130E+00 -.935E+02   0.168E+03 0.138E+00 0.968E+02   -.662E+01 -.104E-01 -.383E+01   -.174E-03 0.847E-04 0.259E-03
   -.162E+03 -.152E+00 -.935E+02   0.168E+03 0.161E+00 0.968E+02   -.662E+01 -.116E-01 -.383E+01   -.218E-03 0.847E-04 0.152E-03
   0.115E+03 -.570E+01 0.122E+03   -.114E+03 0.617E+01 -.130E+03   -.792E+00 -.448E+00 0.798E+01   0.772E-03 0.105E-03 0.465E-03
   0.115E+03 -.672E+01 0.122E+03   -.114E+03 0.676E+01 -.130E+03   -.779E+00 -.475E-01 0.800E+01   0.762E-03 -.165E-04 0.421E-03
   0.115E+03 -.215E+01 0.122E+03   -.114E+03 0.194E+01 -.130E+03   -.781E+00 0.199E+00 0.799E+01   0.642E-03 0.268E-04 0.336E-03
   0.115E+03 0.646E+00 0.122E+03   -.114E+03 -.898E+00 -.130E+03   -.785E+00 0.229E+00 0.799E+01   0.585E-03 0.168E-03 0.477E-03
   0.115E+03 0.279E+01 0.122E+03   -.114E+03 -.292E+01 -.130E+03   -.789E+00 0.109E+00 0.799E+01   0.635E-03 0.289E-04 0.484E-03
   0.115E+03 0.568E+00 0.123E+03   -.114E+03 -.175E+00 -.130E+03   -.779E+00 -.380E+00 0.799E+01   0.656E-03 -.328E-03 0.459E-03
   0.281E+03 0.428E+01 0.162E+03   -.280E+03 -.441E+01 -.162E+03   -.312E+00 0.135E+00 -.400E-01   -.607E-03 -.389E-02 -.296E-02
   0.133E+03 0.546E+01 0.774E+02   -.133E+03 -.561E+01 -.774E+02   -.450E-01 0.151E+00 0.672E-01   -.251E-02 -.491E-02 -.764E-03
   -.293E-01 0.140E+01 -.464E-03   0.885E-01 -.140E+01 0.635E-01   0.429E-01 -.109E-02 -.368E-02   0.525E-02 -.406E-03 0.300E-02
   -.135E+03 0.373E+00 -.781E+02   0.135E+03 -.364E+00 0.782E+02   -.375E-01 -.370E-02 -.949E-01   -.231E-03 -.110E-02 0.105E-03
   -.288E+03 0.164E+00 -.167E+03   0.288E+03 -.164E+00 0.166E+03   -.119E+00 0.132E-02 -.116E+00   -.153E-02 -.242E-04 -.624E-03
   -.520E+03 -.333E+00 -.300E+03   0.513E+03 0.323E+00 0.296E+03   0.426E+01 0.512E-02 0.247E+01   -.318E-02 0.120E-02 0.699E-03
   0.280E+03 -.102E+02 0.162E+03   -.280E+03 0.105E+02 -.162E+03   -.315E+00 -.246E+00 -.601E-01   -.618E-03 0.124E-02 -.278E-02
   0.133E+03 0.292E+01 0.774E+02   -.133E+03 -.305E+01 -.774E+02   -.463E-01 0.128E+00 0.682E-01   -.237E-02 -.272E-02 -.934E-03
   -.526E-01 0.187E+01 -.515E-03   0.111E+00 -.189E+01 0.602E-01   0.434E-01 0.161E-01 -.269E-02   0.503E-02 0.112E-02 0.405E-02
   -.135E+03 0.248E+00 -.781E+02   0.135E+03 -.234E+00 0.782E+02   -.340E-01 -.109E-01 -.960E-01   -.203E-03 -.295E-03 0.614E-03
   -.288E+03 0.784E-01 -.167E+03   0.288E+03 -.788E-01 0.166E+03   -.117E+00 0.229E-02 -.114E+00   -.197E-02 -.106E-03 -.102E-02
   -.520E+03 -.431E+00 -.300E+03   0.513E+03 0.426E+00 0.296E+03   0.426E+01 0.159E-03 0.247E+01   -.637E-02 0.136E-02 -.815E-03
[...]
   -.288E+03 0.488E+00 -.167E+03   0.288E+03 -.489E+00 0.166E+03   -.119E+00 -.197E-02 -.112E+00   -.162E-02 0.534E-03 -.893E-05
   -.520E+03 -.575E-01 -.300E+03   0.513E+03 0.389E-01 0.296E+03   0.426E+01 0.123E-01 0.247E+01   -.701E-02 0.837E-03 -.200E-02
   0.280E+03 0.113E+02 0.162E+03   -.280E+03 -.117E+02 -.162E+03   -.319E+00 0.296E+00 -.556E-01   -.103E-03 0.571E-02 -.354E-02
   0.133E+03 0.505E+01 0.774E+02   -.133E+03 -.517E+01 -.774E+02   -.427E-01 0.114E+00 0.633E-01   -.333E-02 -.407E-02 -.878E-03
   -.202E-01 0.172E+01 0.185E-01   0.808E-01 -.173E+01 0.435E-01   0.412E-01 0.606E-02 -.110E-02   0.529E-02 -.952E-03 0.319E-02
   -.135E+03 0.105E+01 -.781E+02   0.135E+03 -.106E+01 0.782E+02   -.361E-01 0.834E-02 -.917E-01   -.787E-03 -.790E-03 0.666E-03
   -.288E+03 0.377E+00 -.167E+03   0.288E+03 -.378E+00 0.166E+03   -.120E+00 -.385E-03 -.114E+00   -.153E-02 0.225E-03 0.314E-03
   -.520E+03 -.127E+00 -.300E+03   0.513E+03 0.108E+00 0.296E+03   0.426E+01 0.125E-01 0.247E+01   -.557E-02 0.838E-03 -.177E-02
   0.676E+03 -.125E+02 0.358E+03   -.707E+03 0.120E+02 -.343E+03   0.313E+02 0.669E+00 -.153E+02   0.125E-01 0.276E-02 0.188E-02
   0.674E+03 -.428E+02 0.357E+03   -.706E+03 0.453E+02 -.342E+03   0.312E+02 -.228E+01 -.154E+02   0.135E-01 -.427E-03 0.228E-02
   0.675E+03 -.243E+02 0.358E+03   -.707E+03 0.264E+02 -.343E+03   0.313E+02 -.208E+01 -.153E+02   0.115E-01 -.517E-03 -.205E-03
   0.676E+03 -.569E+01 0.358E+03   -.707E+03 0.687E+01 -.343E+03   0.313E+02 -.126E+01 -.153E+02   0.112E-01 0.221E-02 0.401E-04
   0.676E+03 0.138E+02 0.358E+03   -.707E+03 -.141E+02 -.343E+03   0.313E+02 0.185E+00 -.153E+02   0.122E-01 0.221E-02 -.959E-03
   0.675E+03 0.286E+02 0.359E+03   -.706E+03 -.314E+02 -.344E+03   0.312E+02 0.273E+01 -.153E+02   0.114E-01 -.520E-02 -.862E-03
   -.156E+03 0.147E+01 0.588E+02   0.682E-12 -.284E-13 0.682E-12   0.155E+03 -.132E+01 -.584E+02   0.195E-01 -.119E-01 -.154E-01

 POSITION                                       TOTAL-FORCE (eV/Angst)
     12.66216      7.56977     18.84429        -0.002635     -0.000796      0.000859
     13.89769      7.49751     21.01470        -0.013383      0.004529      0.003526
     15.13593      7.48658     23.18751        -0.007808      0.002104     -0.006692
     16.37688      7.49218     25.35359         0.003541      0.001043     -0.000873
     17.62272      7.49532     27.51766         0.016568      0.000829      0.008725
     18.87448      7.49821     29.68632         0.005734     -0.000720     -0.002297
     13.91986      7.65797     16.66997        -0.003258     -0.002903      0.000145
     15.15408      7.55226     18.83975        -0.012830     -0.000237      0.003544
     16.39231      7.50157     21.01202        -0.009566      0.001385     -0.006261
     17.63318      7.49466     23.17809         0.003402     -0.001157      0.000352
     18.87893      7.49584     25.34210         0.016099      0.000489      0.008831
     20.13062      7.49827     27.51075         0.005871     -0.000512     -0.001766
     15.17469      7.61717     14.49276         0.000113      0.000510      0.000562
     16.41010      7.56404     16.66398        -0.011308     -0.001854      0.002529
     17.64830      7.51483     18.83641        -0.008431      0.000503     -0.006865
     18.88934      7.49688     21.00245         0.003574      0.000082      0.001850
     20.13512      7.49611     23.16650         0.015807      0.000155      0.009120
     21.38684      7.49795     25.33519         0.004520     -0.000570     -0.002961
     16.42951      7.53105     12.31634        -0.001613      0.001978      0.002841
     17.66539      7.52760     14.48790        -0.011986      0.001887      0.004622
     18.90403      7.50885     16.66067        -0.007404     -0.000194     -0.007766
     20.14528      7.49651     18.82677         0.003764      0.001487     -0.000395
     21.39118      7.49595     20.99081         0.016492     -0.000362      0.009900
     22.64295      7.49759     23.15953         0.004370     -0.000341     -0.001981
     17.68570      7.45656     10.14069        -0.002717     -0.000672      0.001449
     18.92130      7.48692     12.31217        -0.011615      0.000296      0.004625
     20.15993      7.49477     14.48487        -0.008237      0.001495     -0.005890
     21.40119      7.49437     16.65098         0.002581      0.000596      0.000307
     22.64716      7.49539     18.81511         0.015594     -0.000039      0.009777
     23.89895      7.49747     20.98385         0.004995     -0.000236     -0.001600
     18.94270      7.45236      7.96458         0.000275      0.000441      0.001429
     20.17781      7.46751     10.13656        -0.011962      0.002486      0.002625
     21.41605      7.48451     12.30927        -0.006653      0.002787     -0.006195
     22.65725      7.49234     14.47532         0.002347      0.001444      0.000578
     23.90313      7.49510     16.63949         0.016939      0.000728      0.009327
     25.15497      7.49775     18.80823         0.005326     -0.000450     -0.002688
     19.71203      7.50059     31.62046         0.002601     -0.001867     -0.006021
     20.96812      7.50085     29.44493         0.002512     -0.001679     -0.006030
     22.22423      7.50037     27.26940         0.003711     -0.001743     -0.005420
     23.48036      7.49970     25.09376         0.004248     -0.001912     -0.005662
     24.73647      7.49943     22.91807         0.003784     -0.002059     -0.006104
     25.99254      7.49981     20.74235         0.003150     -0.002031     -0.005795
     11.58326      7.65580     17.21247        -0.002626     -0.003547      0.006860
     12.84159      7.75074     15.03806        -0.002471     -0.007558      0.007410
     14.09627      7.64951     12.85874        -0.003311      0.002951      0.007372
     15.35087      7.52484     10.68190        -0.002503     -0.003042      0.008510
     16.60722      7.42751      8.50611        -0.001617     -0.000180      0.009969
     17.86354      7.45685      6.33023        -0.001610      0.002003      0.008955
     12.64966      7.50196     20.28772         0.006634      0.004996     -0.000954
     13.88866      7.47870     22.46146        -0.002268      0.006321      0.001058
     15.12690      7.48771     24.63284        -0.004077      0.000566     -0.008003
     16.36855      7.49347     26.79812         0.001653      0.001318     -0.002498
     17.61373      7.49616     28.96191         0.007259     -0.000035     -0.000364
     18.83713      7.49904     31.11498         0.001750     -0.002029     -0.004883
     13.90632      7.60180     18.11390         0.004989     -0.001004     -0.001354
     15.14508      7.51294     20.28605        -0.003450      0.003683      0.000327
     16.38326      7.49353     22.45736        -0.004254     -0.001227     -0.009341
     17.62475      7.49461     24.62264         0.002241     -0.000096     -0.003321
     18.86988      7.49642     26.78635         0.007078      0.000163      0.000331
     20.09324      7.49942     28.93942         0.001518     -0.002275     -0.005104
[...]
     21.39298      7.49476     18.09561         0.002275     -0.000601     -0.003007
     22.63824      7.49625     20.25939         0.007122     -0.001085      0.000443
     23.86163      7.49810     22.41254         0.001448     -0.001523     -0.005008
     18.92981      7.44827      9.40955         0.007078     -0.008073      0.000567
     20.16871      7.47575     11.58333        -0.002714      0.005100      0.002450
     21.40721      7.49021     13.75459        -0.003993      0.000722     -0.006455
     22.64896      7.49363     15.91992         0.002206      0.001260     -0.002099
     23.89423      7.49603     18.08376         0.007338     -0.000621     -0.000225
     25.11765      7.49832     20.23690         0.001741     -0.001565     -0.005451
     11.45581      7.60162     18.18560        -0.013054     -0.003306      0.005484
     12.71550      7.74675     16.01283        -0.013713     -0.001622      0.004690
     13.96985      7.67515     13.83325        -0.011697      0.001689      0.005587
     15.22377      7.55339     11.65629        -0.013992     -0.000661      0.006541
     16.47967      7.44045      9.48079        -0.013033     -0.004050      0.008394
     17.73767      7.40936      7.30388        -0.012462      0.004215      0.007711
    total drift:                               -0.322355      0.132442      0.440128

  FREE ENERGIE OF THE ION-ELECTRON SYSTEM (eV)
  free  energy   TOTEN  =      -804.07299736 eV

  energy  without entropy=     -804.07299736  energy(sigma->0) =     -804.07299736

 d Force = 0.1893815E-03[ 0.140E-03, 0.238E-03]  d Energy = 0.1835861E-03 0.580E-05
 d Force = 0.3187757E+01[ 0.319E+01, 0.319E+01]  d Ewald  = 0.3187757E+01 0.204E-09

 Conjugate gradient step on ions:
 trial-energy change:   -0.000184  1 .order   -0.000189   -0.000238   -0.000140
  (g-gl).g = 0.804E-03      g.g   = 0.747E-03  gl.gl    = 0.200E-02
 g(Force)  = 0.747E-03   g(Stress)= 0.000E+00 ortho     =-0.567E-04
 gamma     =   0.40237
 trial     =   0.32938
 opt step  =   0.79970  (harmonic =   0.79970) maximal distance =0.00130052
 next E    =  -804.073103   (d E  =  -0.00029)

 reached required accuracy - stopping structural energy minimisation
 writing wavefunctions

 total charge

[...]

 magnetization (x)

# of ion       s       p       d       tot
    1       -0.000  -0.000   0.000  -0.000
    2       -0.000   0.000   0.000  -0.000
    3        0.000   0.000   0.000   0.000
    4        0.000   0.000   0.000   0.000
    5        0.000   0.000   0.000   0.000
    6       -0.000  -0.000   0.000  -0.000
    7       -0.000  -0.000   0.000  -0.000
    8        0.000   0.000   0.000   0.000
    9        0.000   0.000   0.000   0.000
   10        0.000   0.000   0.000   0.000
   11       -0.000   0.000   0.000   0.000
   12       -0.000  -0.000   0.000  -0.000
   13        0.000  -0.000   0.000  -0.000
   14        0.000   0.000   0.000   0.000
   15        0.000   0.000   0.000   0.000
   16       -0.000  -0.000   0.000  -0.000
   17        0.000   0.000   0.000   0.000
   18       -0.000  -0.000   0.000  -0.000
   19       -0.000  -0.000   0.000  -0.000
   20        0.000   0.000   0.000   0.000
   21        0.000   0.000   0.000   0.000
   22        0.000  -0.000   0.000  -0.000
   23        0.000  -0.000   0.000  -0.000
   24        0.000  -0.000   0.000   0.000
   25       -0.000  -0.000   0.000  -0.000
   26       -0.000   0.000   0.000   0.000
   27        0.000   0.000   0.000   0.000
   28        0.000  -0.000   0.000  -0.000
   29        0.000   0.000   0.000   0.000
   30       -0.000   0.000   0.000   0.000
   31       -0.000  -0.000   0.000  -0.000
   32        0.000   0.000   0.000   0.000
   33        0.000   0.000   0.000   0.000
   34        0.000  -0.000   0.000  -0.000
   35       -0.000   0.000   0.000   0.000
   36       -0.000   0.000   0.000   0.000
   37       -0.000  -0.000   0.000  -0.000
   38       -0.000   0.000   0.000  -0.000
   39       -0.000   0.000   0.000  -0.000
   40       -0.000   0.000   0.000  -0.000
   41        0.000  -0.000   0.000   0.000
   42        0.000  -0.000   0.000   0.000
   43       -0.000   0.000   0.000  -0.000
   44        0.000   0.000   0.000   0.000
   45       -0.000  -0.000   0.000  -0.000
   46        0.000   0.000   0.000   0.000
   47        0.000  -0.000   0.000   0.000
   48       -0.000  -0.000   0.000  -0.000
   49        0.000   0.000   0.000   0.000
   50        0.000   0.000   0.000   0.000
   51        0.000  -0.000   0.000  -0.000
   52        0.000  -0.000   0.000  -0.000
   53       -0.000   0.000   0.000   0.000
   54        0.000  -0.000   0.000  -0.000
   55        0.000  -0.000   0.000  -0.000
   56       -0.000   0.000   0.000   0.000
   57        0.000  -0.000   0.000  -0.000
   58       -0.000  -0.000   0.000  -0.000
   59        0.000   0.000   0.000   0.000
   60       -0.000  -0.000   0.000  -0.000
[...]
   76       -0.000  -0.000   0.000  -0.000
   77       -0.000  -0.000   0.000  -0.000
   78       -0.000   0.000   0.000   0.000
   79        0.000  -0.000   0.000  -0.000
   80        0.000   0.000   0.000   0.000
   81        0.000   0.000   0.000   0.000
   82        0.000   0.000   0.000   0.000
   83       -0.000   0.000   0.000   0.000
   84       -0.000  -0.000   0.000  -0.000
   85        0.000  -0.000   0.000  -0.000
   86        0.000  -0.000   0.000  -0.000
   87       -0.000  -0.000   0.000  -0.000
   88        0.000  -0.000   0.000  -0.000
   89       -0.000  -0.000   0.000  -0.000
   90        0.000   0.000   0.000   0.000
tot          0.000  -0.000   0.000  -0.000