 vasp.5.4.4.18Apr17-6-g9f103f2a35 (build May 01 2020 14:57:12) complex

 executed on             LinuxIFC date 2020.10.08  23:31:09

 INCAR:
 POTCAR:    PAW_PBE B 06Sep2000
 POTCAR:    PAW_PBE N 08Apr2002
 POTCAR:    PAW_PBE C 08Apr2002
 POTCAR:    PAW_PBE F 08Apr2002
 POTCAR:    PAW_PBE O 08Apr2002

 POTCAR:    PAW_PBE B 06Sep2000
   VRHFIN =B: s2p1

   TITEL  = PAW_PBE B 06Sep2000
   POMASS =   10.811; ZVAL   =    3.000    mass and valenz
   ENMAX  =  318.614; ENMIN  =  238.960 eV

 POTCAR:    PAW_PBE N 08Apr2002
   VRHFIN =N: s2p3

   TITEL  = PAW_PBE N 08Apr2002
   POMASS =   14.001; ZVAL   =    5.000    mass and valenz
   ENMAX  =  400.000; ENMIN  =  300.000 eV

 POTCAR:    PAW_PBE C 08Apr2002
   VRHFIN =C: s2p2

[...]

 POTCAR:    PAW_PBE F 08Apr2002
   VRHFIN =F: s2p5

[...]

 POTCAR:    PAW_PBE O 08Apr2002
   VRHFIN =O: s2p4

   TITEL  = PAW_PBE O 08Apr2002
   POMASS =   16.000; ZVAL   =    6.000    mass and valenz
   ENMAX  =  400.000; ENMIN  =  300.000 eV

 Optimization of the real space projectors (new method)

 maximal supplied QI-value         = 22.11
 optimisation between [QCUT,QGAM] = [ 11.94, 23.88] = [ 39.92,159.67] Ry
 Optimized for a Real-space Cutoff    1.18 Angstroem

   l    n(q)    QCUT    max X(q) W(low)/X(q) W(high)/X(q)  e(spline)
   0      8    11.939    53.033    0.11E-03    0.34E-03    0.60E-07
   0      8    11.939    34.740    0.11E-03    0.34E-03    0.59E-07
   1      8    11.939    30.949    0.22E-03    0.20E-03    0.17E-06
   1      8    11.939    19.518    0.20E-03    0.18E-03    0.16E-06
 Optimization of the real space projectors (new method)

[...]

   l    n(q)    QCUT    max X(q) W(low)/X(q) W(high)/X(q)  e(spline)
   0      8    11.883    14.049    0.56E-04    0.86E-04    0.22E-06
   0      8    11.883     8.945    0.81E-04    0.11E-03    0.30E-06
   1      8    11.883     7.086    0.16E-03    0.15E-04    0.31E-06
   1      8    11.883     6.747    0.15E-03    0.14E-04    0.28E-06
 Optimization of the real space projectors (new method)

 maximal supplied QI-value         = 24.76
 optimisation between [QCUT,QGAM] = [ 11.88, 24.01] = [ 39.54,161.47] Ry
 Optimized for a Real-space Cutoff    1.18 Angstroem

   l    n(q)    QCUT    max X(q) W(low)/X(q) W(high)/X(q)  e(spline)
   0      8    11.883    20.381    0.86E-04    0.11E-03    0.31E-06
   0      8    11.883    15.268    0.94E-04    0.12E-03    0.33E-06
   1      8    11.883     5.964    0.19E-03    0.18E-04    0.33E-06
   1      8    11.883     5.382    0.17E-03    0.20E-04    0.29E-06
  PAW_PBE B 06Sep2000                   :
  PAW_PBE N 08Apr2002                   :
  PAW_PBE C 08Apr2002                   :
  PAW_PBE F 08Apr2002                   :
  PAW_PBE O 08Apr2002                   :

 POSCAR: B N C F O
  positions in direct lattice
  velocities in cartesian coordinates

 METAGGA = SCAN     LMAXTAU =  6    LMIXTAU =  F

 ion  position               nearest neighbor table
   1  0.111  0.056  0.500-  42 1.45  37 1.45  43 1.45
   2  0.111  0.222  0.500-  38 1.45  37 1.45  44 1.45
   3  0.111  0.389  0.500-  39 1.45  45 1.45  38 1.45
   4  0.111  0.556  0.500-  46 1.45  39 1.45  40 1.45
   5  0.111  0.722  0.500-  40 1.45  47 1.45  41 1.45
   6  0.111  0.889  0.500-  41 1.45  42 1.45  48 1.45
   7  0.278  0.056  0.500-  48 1.45  49 1.45  43 1.45
   8  0.278  0.222  0.500-  43 1.45  44 1.45  50 1.45
   9  0.278  0.389  0.500-  45 1.45  51 1.45  44 1.45
  10  0.278  0.556  0.500-  52 1.45  45 1.45  46 1.45
  11  0.278  0.722  0.500-  46 1.45  53 1.45  47 1.45
  12  0.278  0.889  0.500-  47 1.45  54 1.45  48 1.45
  13  0.444  0.056  0.500-  55 1.45  54 1.45  49 1.45
  14  0.444  0.222  0.500-  56 1.45  49 1.45  50 1.45
  15  0.444  0.389  0.500-  57 1.45  51 1.45  50 1.45
  16  0.444  0.556  0.500-  52 1.45  58 1.45  51 1.45
  17  0.444  0.722  0.500-  59 1.45  53 1.45  52 1.45
  18  0.444  0.889  0.500-  53 1.45  60 1.45  54 1.45
  19  0.611  0.056  0.500-  60 1.45  61 1.45  55 1.45
  20  0.611  0.222  0.500-  62 1.45  55 1.45  56 1.45
  21  0.611  0.389  0.500-  63 1.45  56 1.45  57 1.45
  22  0.611  0.556  0.500-  58 1.45  64 1.45  57 1.45
  23  0.611  0.722  0.500-  59 1.45  65 1.45  58 1.45
  24  0.611  0.889  0.500-  59 1.45  66 1.45  60 1.45
  25  0.778  0.056  0.500-  67 1.45  66 1.45  61 1.45
  26  0.778  0.222  0.500-  68 1.45  61 1.45  62 1.45
  27  0.778  0.389  0.500-  63 1.45  69 1.45  62 1.45
  28  0.778  0.556  0.500-  64 1.45  63 1.45  70 1.45
  29  0.778  0.722  0.500-  64 1.45  65 1.45  71 1.45
  30  0.778  0.889  0.500-  65 1.45  66 1.45  72 1.45
  31  0.944  0.056  0.500-  67 1.45  72 1.45  37 1.45
  32  0.944  0.222  0.500-  67 1.45  68 1.45  38 1.45
  33  0.944  0.389  0.500-  39 1.45  68 1.45  69 1.45
  34  0.944  0.556  0.500-  69 1.45  40 1.45  70 1.45
  35  0.944  0.722  0.500-  70 1.45  71 1.45  41 1.45
  36  0.944  0.889  0.500-  71 1.45  72 1.45  42 1.45
  37  0.056  0.111  0.500-   2 1.45   1 1.45  31 1.45
  38  0.056  0.278  0.500-   2 1.45   3 1.45  32 1.45
  39  0.056  0.444  0.500-  33 1.45   3 1.45   4 1.45
  40  0.056  0.611  0.500-   5 1.45  34 1.45   4 1.45
  41  0.056  0.778  0.500-   6 1.45  35 1.45   5 1.45
  42  0.056  0.944  0.500-   1 1.45   6 1.45  36 1.45
  43  0.222  0.111  0.500-   8 1.45   7 1.45   1 1.45
  44  0.222  0.278  0.500-   8 1.45   9 1.45   2 1.45
  45  0.222  0.444  0.500-   9 1.45  10 1.45   3 1.45
  46  0.222  0.611  0.500-  11 1.45   4 1.45  10 1.45
  47  0.222  0.778  0.500-  12 1.45   5 1.45  11 1.45
  48  0.222  0.944  0.500-   7 1.45   6 1.45  12 1.45
  49  0.389  0.111  0.500-  14 1.45   7 1.45  13 1.45
  50  0.389  0.278  0.500-   8 1.45  15 1.45  14 1.45
  51  0.389  0.444  0.500-   9 1.45  15 1.45  16 1.45
  52  0.389  0.611  0.500-  16 1.45  10 1.45  17 1.45
  53  0.389  0.778  0.500-  18 1.45  11 1.45  17 1.45
  54  0.389  0.944  0.500-  13 1.45  12 1.45  18 1.45
  55  0.556  0.111  0.500-  13 1.45  20 1.45  19 1.45
  56  0.556  0.278  0.500-  14 1.45  21 1.45  20 1.45
  57  0.556  0.444  0.500-  15 1.45  21 1.45  22 1.45
  58  0.556  0.611  0.500-  16 1.45  22 1.45  23 1.45
  59  0.556  0.778  0.500-  24 1.45  17 1.45  23 1.45
  60  0.556  0.944  0.500-  19 1.45  18 1.45  24 1.45
[...]
  68  0.889  0.278  0.500-  26 1.45  32 1.45  33 1.45
  69  0.889  0.444  0.500-  27 1.45  34 1.45  33 1.45
  70  0.889  0.611  0.500-  35 1.45  34 1.45  28 1.45
  71  0.889  0.778  0.500-  36 1.45  35 1.45  29 1.45
  72  0.889  0.944  0.500-  31 1.45  36 1.45  30 1.45
  73  0.373  0.314  0.673-  76 1.34  78 1.34  77 1.34  74 1.54
  74  0.354  0.317  0.630-  80 1.36  79 1.37  73 1.54  75 1.55
  75  0.343  0.409  0.618-  82 1.25  81 1.25  74 1.55
  76  0.461  0.396  0.684-  73 1.34
  77  0.377  0.229  0.682-  73 1.34
  78  0.296  0.312  0.693-  73 1.34
  79  0.434  0.318  0.612-  74 1.37
  80  0.268  0.226  0.622-  74 1.36
  81  0.424  0.491  0.612-  75 1.25
  82  0.254  0.394  0.615-  75 1.25

IMPORTANT INFORMATION: All symmetrisations will be switched off!
NOSYMM: (Re-)initialisation of all symmetry stuff for point group C_1.

 KPOINTS: K-Point Grid

Automatic generation of k-mesh.
Space group operators:
 irot       det(A)        alpha          n_x          n_y          n_z        tau_x        tau_y        tau_z
    1     1.000000     0.000000     1.000000     0.000000     0.000000     0.000000     0.000000     0.000000

 Subroutine IBZKPT returns following result:

 Found      5 irreducible k-points:

 Following reciprocal coordinates:
            Coordinates               Weight
  0.000000  0.000000  0.000000      1.000000
  0.333333  0.000000  0.000000      2.000000
  0.000000  0.333333  0.000000      2.000000
  0.333333  0.333333  0.000000      2.000000
 -0.333333  0.333333  0.000000      2.000000

 Following cartesian coordinates:
            Coordinates               Weight
  0.000000  0.000000  0.000000      1.000000
  0.022114 -0.012768  0.000000      2.000000
  0.022114  0.012768  0.000000      2.000000
  0.044229  0.000000  0.000000      2.000000
  0.000000  0.025535  0.000000      2.000000

 SYSTEM =  SiC
 POSCAR =  B N C F O

 Startparameter for this run:
   NWRITE =      2    write-flag & timer
   PREC   = accura    normal or accurate (medium, high low for compatibility)
   ISTART =      1    job   : 0-new  1-cont  2-samecut
   ICHARG =      0    charge: 1-file 2-atom 10-const
   ISPIN  =      2    spin polarized calculation?
   LNONCOLLINEAR =      F non collinear calculations
   LSORBIT =      F    spin-orbit coupling
   INIWAV =      1    electr: 0-lowe 1-rand  2-diag
   LASPH  =      T    aspherical Exc in radial PAW
   METAGGA=      F    non-selfconsistent MetaGGA calc.

 Electronic Relaxation 1
   ENCUT  =  550.0 eV  40.42 Ry    6.36 a.u.  28.82 28.82 67.15*2*pi/ulx,y,z
   ENINI  =  550.0     initial cutoff
   ENAUG  =  644.9 eV  augmentation charge cutoff
   NELM   =    100;   NELMIN=  2; NELMDL=  0     # of ELM steps
   EDIFF  = 0.1E-04   stopping-criterion for ELM
   LREAL  =      T    real-space projection
   NLSPLINE    = F    spline interpolate recip. space projectors
   LCOMPAT=      F    compatible to vasp.4.4
   GGA_COMPAT  = T    GGA compatible to vasp.4.4-vasp.4.6
   LMAXPAW     = -100 max onsite density
   LMAXMIX     =    2 max onsite mixed and CHGCAR
   VOSKOWN=      0    Vosko Wilk Nusair interpolation
   ROPT   =   -0.00025  -0.00025  -0.00025  -0.00025
   ROPT   =   -0.00025
 Ionic relaxation
   EDIFFG = -.2E-01   stopping-criterion for IOM
   NSW    =    500    number of steps for IOM
   NBLOCK =      1;   KBLOCK =    500    inner block; outer block
   IBRION =      2    ionic relax: 0-MD 1-quasi-New 2-CG
   NFREE  =      1    steps in history (QN), initial steepest desc. (CG)
   ISIF   =      2    stress and relaxation
   IWAVPR =     11    prediction:  0-non 1-charg 2-wave 3-comb
   ISYM   =      0    0-nonsym 1-usesym 2-fastsym
   LCORR  =      T    Harris-Foulkes like correction to forces

   POTIM  = 0.5000    time-step for ionic-motion
   TEIN   =    0.0    initial temperature
   TEBEG  =    0.0;   TEEND  =   0.0 temperature during run
   SMASS  =  -3.00    Nose mass-parameter (am)
   estimated Nose-frequenzy (Omega)   =  0.10E-29 period in steps =****** mass=  -0.519E-26a.u.
   SCALEE = 1.0000    scale energy and forces
   NPACO  =    256;   APACO  = 16.0  distance and # of slots for P.C.
   PSTRESS=    0.0 pullay stress

  Mass of Ions in am
   POMASS =  10.81 14.00 12.01 19.00 16.00
  Ionic Valenz
   ZVAL   =   3.00  5.00  4.00  7.00  6.00
  Atomic Wigner-Seitz radii
  virtual crystal weights
   VCA    =   1.00  1.00  1.00  1.00  1.00
   NELECT =     346.4000    total number of electrons
   NUPDOWN=      -1.0000    fix difference up-down

 DOS related values:
   EMIN   =  10.00;   EMAX   =-10.00  energy-range for DOS
   EFERMI =   0.00
   ISMEAR =     0;   SIGMA  =   0.05  broadening in eV -4-tet -1-fermi 0-gaus

 Electronic relaxation 2 (details)
   IALGO  =     68    algorithm
   LDIAG  =      T    sub-space diagonalisation (order eigenvalues)
   LSUBROT=      F    optimize rotation matrix (better conditioning)
   TURBO    =      0    0=normal 1=particle mesh
   IRESTART =      0    0=no restart 2=restart with 2 vectors
   NREBOOT  =      0    no. of reboots
[...]
   0.144E+01 0.310E+01 0.440E+02   -.135E+01 -.312E+01 -.435E+02   -.325E-03 0.288E-03 0.323E-03   -.415E-03 0.258E-03 -.147E-02
   -.737E+01 0.908E+01 0.480E+02   0.735E+01 -.900E+01 -.474E+02   -.435E-03 -.208E-03 0.623E-03   -.102E-03 -.139E-03 -.148E-02
   -.146E+02 0.829E+01 0.504E+02   0.144E+02 -.813E+01 -.498E+02   0.149E-03 -.603E-03 0.305E-03   0.537E-03 -.606E-03 -.168E-02
   -.119E+02 0.192E+01 0.478E+02   0.117E+02 -.182E+01 -.471E+02   0.844E-03 -.484E-03 0.243E-03   0.920E-03 -.436E-03 -.179E-02
   -.225E+01 -.253E+01 0.437E+02   0.214E+01 0.252E+01 -.432E+02   0.821E-03 0.161E-04 0.693E-03   0.476E-03 -.129E-04 -.164E-02
   0.155E+02 -.511E+01 0.504E+02   -.153E+02 0.511E+01 -.498E+02   0.499E-03 -.759E-03 0.675E-03   -.821E-03 -.126E-03 -.177E-02
   0.129E+02 -.105E+02 0.509E+02   -.126E+02 0.104E+02 -.502E+02   -.371E-04 0.867E-04 0.199E-04   -.125E-02 0.555E-03 -.215E-02
   0.330E+01 -.784E+01 0.463E+02   -.315E+01 0.764E+01 -.457E+02   -.108E-02 0.643E-03 0.259E-03   -.704E-03 0.917E-03 -.196E-02
   -.318E+01 -.814E+00 0.427E+02   0.316E+01 0.731E+00 -.422E+02   -.719E-04 0.172E-03 0.907E-03   -.298E-04 0.465E-03 -.158E-02
   -.126E+01 0.284E+01 0.426E+02   0.120E+01 -.281E+01 -.421E+02   0.490E-03 -.201E-04 0.650E-03   0.242E-03 -.445E-04 -.141E-02
   0.782E+01 0.120E+01 0.458E+02   -.778E+01 -.114E+01 -.453E+02   0.425E-03 -.133E-03 0.749E-03   -.363E-04 -.267E-03 -.145E-02
   0.402E+02 -.873E+01 0.106E+03   -.397E+02 0.883E+01 -.104E+03   0.156E-02 -.113E-02 -.198E-02   -.241E-02 -.835E-03 -.361E-02
   0.299E+02 -.294E+02 0.108E+03   -.292E+02 0.291E+02 -.106E+03   -.353E-02 -.464E-02 0.336E-02   -.320E-02 0.119E-02 -.526E-02
   0.845E+01 -.284E+02 0.878E+02   -.818E+01 0.278E+02 -.864E+02   -.156E-02 0.193E-02 -.535E-03   -.140E-02 0.269E-02 -.444E-02
   0.625E-01 -.104E+02 0.719E+02   -.576E-01 0.100E+02 -.710E+02   0.448E-03 0.284E-02 -.515E-02   -.588E-04 0.165E-02 -.296E-02
   0.813E+01 0.429E+01 0.716E+02   -.811E+01 -.431E+01 -.708E+02   0.918E-03 0.106E-02 -.156E-02   0.129E-03 0.318E-03 -.229E-02
   0.271E+02 0.689E+01 0.858E+02   -.268E+02 -.674E+01 -.849E+02   0.199E-02 0.859E-03 -.223E-02   -.629E-03 -.638E-03 -.240E-02
   0.414E+02 0.185E+02 0.130E+03   -.409E+02 -.182E+02 -.129E+03   0.834E-02 0.384E-02 -.232E-02   -.182E-02 -.202E-02 -.320E-02
   0.338E+02 -.163E+02 0.162E+03   -.333E+02 0.166E+02 -.160E+03   0.355E-02 -.100E-01 0.455E-02   -.336E-02 -.192E-02 -.707E-02
   0.593E+01 -.454E+02 0.137E+03   -.570E+01 0.449E+02 -.135E+03   -.213E-02 -.872E-02 0.313E-01   -.140E-02 0.268E-02 -.860E-02
   -.486E+01 -.314E+02 0.901E+02   0.474E+01 0.307E+02 -.886E+02   0.811E-03 0.386E-02 0.118E-02   0.530E-03 0.340E-02 -.490E-02
   0.430E+01 -.339E+01 0.737E+02   -.436E+01 0.312E+01 -.728E+02   0.784E-03 0.281E-02 -.562E-02   0.466E-03 0.146E-02 -.277E-02
   0.232E+02 0.182E+02 0.880E+02   -.230E+02 -.180E+02 -.870E+02   0.262E-02 0.199E-02 -.207E-02   -.259E-03 -.242E-03 -.221E-02
   0.172E+02 0.390E+02 0.114E+03   -.171E+02 -.386E+02 -.113E+03   0.253E-02 0.339E-02 -.209E-02   -.586E-03 -.140E-02 -.236E-02
   0.640E+01 0.292E+02 0.171E+03   -.614E+01 -.287E+02 -.169E+03   -.426E-02 0.604E-02 0.152E-02   -.132E-02 -.376E-02 -.474E-02
   -.216E+02 -.161E+02 0.176E+03   0.216E+02 0.163E+02 -.173E+03   -.134E-01 -.967E-02 0.296E-01   0.508E-03 -.197E-02 -.926E-02
   -.274E+02 -.354E+02 0.119E+03   0.269E+02 0.348E+02 -.117E+03   0.223E-02 0.515E-03 0.992E-02   0.268E-02 0.253E-02 -.724E-02
   -.108E+02 -.143E+02 0.800E+02   0.105E+02 0.138E+02 -.789E+02   0.172E-02 0.288E-02 -.287E-02   0.164E-02 0.212E-02 -.369E-02
   0.646E+01 0.149E+02 0.794E+02   -.650E+01 -.149E+02 -.785E+02   0.118E-02 0.201E-02 -.399E-02   0.433E-03 0.521E-03 -.234E-02
   0.467E+00 0.267E+02 0.841E+02   -.459E+00 -.265E+02 -.832E+02   -.242E-03 0.146E-02 0.333E-04   -.257E-04 -.238E-03 -.215E-02
   -.129E+02 0.423E+02 0.118E+03   0.129E+02 -.417E+02 -.117E+03   -.497E-02 0.236E-02 -.818E-03   -.193E-03 -.208E-02 -.272E-02
   -.394E+02 0.235E+02 0.141E+03   0.391E+02 -.229E+02 -.140E+03   -.868E-02 0.810E-03 0.697E-02   0.128E-02 -.341E-02 -.502E-02
   -.447E+02 -.836E+01 0.120E+03   0.440E+02 0.848E+01 -.118E+03   0.208E-02 -.177E-02 0.707E-02   0.352E-02 -.902E-03 -.608E-02
   -.244E+02 -.139E+02 0.847E+02   0.238E+02 0.136E+02 -.834E+02   0.231E-02 0.988E-03 -.937E-03   0.262E-02 0.111E-02 -.404E-02
   -.536E+01 0.279E+01 0.720E+02   0.516E+01 -.293E+01 -.711E+02   0.861E-03 0.156E-02 -.252E-02   0.920E-03 0.802E-03 -.260E-02
[...]
   -.469E+01 0.346E-01 0.737E+02   0.474E+01 -.162E+00 -.728E+02   -.341E-03 0.130E-02 -.682E-02   -.444E-03 0.746E-03 -.271E-02
   -.112E+02 0.607E+01 0.728E+02   0.110E+02 -.601E+01 -.720E+02   0.127E-02 0.267E-03 -.397E-02   0.439E-03 -.771E-04 -.249E-02
   -.306E+01 0.390E+01 0.733E+02   0.292E+01 -.379E+01 -.724E+02   0.177E-02 -.531E-03 -.296E-02   0.637E-03 -.433E-03 -.248E-02
   0.125E+02 -.324E+01 0.759E+02   -.124E+02 0.327E+01 -.750E+02   0.775E-03 -.630E-03 -.527E-02   -.200E-03 -.278E-03 -.260E-02
   0.400E+00 0.218E+02 -.419E+03   -.101E+01 -.194E+02 0.409E+03   0.846E+00 -.171E+01 0.102E+02   -.267E-02 -.905E-02 0.781E-02
   -.740E+01 -.370E+02 -.317E+03   0.133E+02 0.476E+02 0.322E+03   -.543E+01 -.941E+01 -.399E+01   -.633E-02 -.189E-01 0.449E-02
   -.333E+02 -.958E+02 -.305E+03   0.330E+02 0.953E+02 0.307E+03   0.987E+00 0.199E+01 -.203E+00   -.494E-03 -.294E-01 0.456E-02
   -.536E+03 0.851E+02 -.916E+03   0.593E+03 -.874E+02 0.932E+03   -.555E+02 0.354E+01 -.165E+02   -.653E-03 -.131E-01 0.142E-01
   0.246E+03 0.526E+03 -.875E+03   -.271E+03 -.575E+03 0.890E+03   0.255E+02 0.496E+02 -.137E+02   -.218E-02 -.863E-02 0.729E-02
   0.247E+03 -.358E+03 -.104E+04   -.272E+03 0.401E+03 0.107E+04   0.253E+02 -.416E+02 -.309E+02   -.532E-02 -.112E-01 0.162E-01
   -.213E+03 0.432E+03 -.311E+03   0.238E+03 -.471E+03 0.288E+03   -.242E+02 0.402E+02 0.266E+02   -.753E-02 -.231E-01 -.312E-02
   0.562E+03 0.411E+02 -.439E+03   -.615E+03 -.405E+02 0.429E+03   0.525E+02 0.149E+01 0.132E+02   -.136E-01 -.250E-01 -.736E-03
   -.449E+03 -.155E+03 -.429E+03   0.502E+03 0.157E+03 0.423E+03   -.505E+02 -.477E+00 0.818E+01   0.164E-01 -.130E-01 -.389E-02
   0.187E+03 -.450E+03 -.464E+03   -.220E+03 0.492E+03 0.462E+03   0.320E+02 -.398E+02 0.417E+01   -.132E-01 0.177E-02 -.168E-02
   -.145E+01 -.363E+01 0.308E+01   0.853E-13 -.114E-12 -.239E-11   0.149E+01 0.378E+01 -.291E+01   -.357E-01 -.150E+00 -.171E+00

 POSITION                                       TOTAL-FORCE (eV/Angst)
      1.25603     -0.72517     17.55772         0.000070     -0.000013      0.000461
      2.51209      1.45050     17.55668         0.000392     -0.000125      0.001329
      3.76829      3.62605     17.55532         0.000214     -0.000283      0.001057
      5.02437      5.80162     17.55664        -0.000015     -0.000117      0.000003
      6.28045      7.97727     17.55783        -0.000035     -0.000028     -0.000029
      7.53654     10.15291     17.55804        -0.000059     -0.000041      0.000308
      2.51216     -2.90088     17.55796         0.000007      0.000058      0.000613
      3.76815     -0.72523     17.55631         0.000104      0.000242      0.002125
      5.02440      1.45063     17.55354         0.000079     -0.000092      0.004776
      6.28046      3.62602     17.55467        -0.000073     -0.000308      0.002079
      7.53653      5.80162     17.55697        -0.000082     -0.000119     -0.000173
      8.79263      7.97726     17.55807        -0.000071     -0.000034     -0.000066
      3.76827     -5.07650     17.55814        -0.000049     -0.000008      0.000308
      5.02436     -2.90094     17.55770         0.000018      0.000295      0.001646
      6.28058     -0.72517     17.55495        -0.000081     -0.000127      0.003946
      7.53655      1.45045     17.55474        -0.000298     -0.000126      0.003800
      8.79261      3.62600     17.55618        -0.000323     -0.000262      0.000377
     10.04871      5.80163     17.55770        -0.000064     -0.000054     -0.000237
      5.02435     -7.25210     17.55795        -0.000039     -0.000043      0.000241
      6.28045     -5.07649     17.55798        -0.000022      0.000005      0.000450
      7.53657     -2.90083     17.55716        -0.000100      0.000312      0.001079
      8.79264     -0.72514     17.55621        -0.000338      0.000190      0.001029
     10.04868      1.45042     17.55653        -0.000286     -0.000102      0.000455
     11.30479      3.62602     17.55751        -0.000044     -0.000055     -0.000124
      6.28045     -9.42772     17.55789        -0.000044     -0.000045      0.000068
      7.53655     -7.25209     17.55785        -0.000014     -0.000052      0.000050
      8.79264     -5.07645     17.55793         0.000001     -0.000022     -0.000124
     10.04871     -2.90081     17.55753        -0.000047     -0.000022      0.000091
     11.30478     -0.72519     17.55744        -0.000061     -0.000026     -0.000011
     12.56088      1.45041     17.55782        -0.000042     -0.000027     -0.000243
      7.53653    -11.60331     17.55781         0.000005     -0.000040      0.000021
      8.79264     -9.42771     17.55723         0.000095     -0.000089      0.000134
     10.04875     -7.25210     17.55738         0.000026     -0.000080     -0.000245
     11.30482     -5.07646     17.55789        -0.000045     -0.000045     -0.000226
     12.56090     -2.90083     17.55795        -0.000048     -0.000035      0.000173
     13.81699     -0.72521     17.55802        -0.000056     -0.000014      0.000029
      1.25609      0.72522     17.55732        -0.000060     -0.000025      0.000475
      2.51218      2.90083     17.55603        -0.000178      0.000044      0.000950
      3.76827      5.07646     17.55620        -0.000033      0.000040      0.000138
      5.02436      7.25207     17.55749        -0.000016      0.000050     -0.000260
      6.28045      9.42770     17.55792        -0.000050      0.000029      0.000305
      7.53654     11.60333     17.55791        -0.000056     -0.000022      0.000206
      2.51217     -1.45042     17.55741        -0.000153     -0.000077      0.000846
      3.76832      0.72520     17.55568        -0.000375     -0.000038      0.002637
      5.02436      2.90088     17.55276        -0.000104      0.000261      0.002854
      6.28046      5.07644     17.55576        -0.000005      0.000053      0.000405
      7.53655      7.25206     17.55769        -0.000057      0.000028     -0.000295
      8.79263      9.42769     17.55801        -0.000042      0.000000      0.000232
      3.76828     -3.62604     17.55799        -0.000062     -0.000053      0.000794
      5.02435     -1.45035     17.55677        -0.000276     -0.000358      0.002861
      6.28030      0.72519     17.55319         0.000036     -0.000038      0.004618
      7.53652      2.90079     17.55439         0.000178      0.000176      0.002253
      8.79263      5.07643     17.55683        -0.000025     -0.000066     -0.000321
     10.04873      7.25207     17.55801         0.000004      0.000034     -0.000118
      5.02436     -5.80168     17.55795        -0.000038     -0.000018      0.000336
      6.28044     -3.62603     17.55762        -0.000019     -0.000102      0.001103
      7.53652     -1.45040     17.55568         0.000044     -0.000220      0.002171
      8.79256      0.72523     17.55518         0.000218     -0.000066      0.001894
     10.04872      2.90083     17.55652         0.000012     -0.000009      0.000006
     11.30482      5.07644     17.55769         0.000035      0.000016     -0.000072
[...]
      8.79264     -7.97729     17.55740        -0.000090     -0.000014     -0.000186
     10.04873     -5.80167     17.55784        -0.000025     -0.000004     -0.000404
     11.30481     -3.62604     17.55782         0.000013      0.000012     -0.000044
     12.56090     -1.45041     17.55780         0.000001     -0.000035      0.000035
     13.81699      0.72521     17.55795        -0.000032     -0.000008     -0.000212
      5.17045     -0.77002     23.63706        -0.002013     -0.000163     -0.013627
      5.05253     -0.48370     22.13218         0.004130      0.006476     -0.004615
      5.66660      0.87152     21.69913         0.007727      0.014258     -0.009675
      6.45719     -0.84907     24.01064        -0.000070      0.001108     -0.004573
      4.57185     -1.93375     23.94644         0.003808     -0.002934      0.010791
      4.58040      0.20777     24.34580        -0.004406     -0.001938     -0.006703
      5.66297     -1.51948     21.48302        -0.004062      0.000687     -0.005638
      3.72392     -0.53904     21.82747         0.003129      0.000396     -0.006342
      6.89883      0.87441     21.50701        -0.001369     -0.007834     -0.008030
      4.88248      1.83528     21.60406        -0.004000     -0.008392     -0.000272
    total drift:                                0.002058      0.003031      0.005081

  FREE ENERGIE OF THE ION-ELECTRON SYSTEM (eV)
  free  energy   TOTEN  =      -775.47377419 eV

  energy  without entropy=     -775.42799010  energy(sigma->0) =     -775.45088215

 d Force = 0.7385198E-04[-0.674E-04, 0.215E-03]  d Energy = 0.1090970E-03-0.352E-04
 d Force = 0.1410382E+01[ 0.141E+01, 0.141E+01]  d Ewald  = 0.1410382E+01-0.252E-06

 reached required accuracy - stopping structural energy minimisation
 writing wavefunctions

 total charge

[...]

 magnetization (x)

# of ion       s       p       d       tot
    1        0.000   0.000   0.000   0.000
    2       -0.000  -0.000   0.000  -0.000
    3       -0.000  -0.000   0.000  -0.000
    4        0.000   0.000   0.000   0.000
    5        0.000   0.000   0.000   0.000
    6        0.000   0.000   0.000   0.000
    7        0.000   0.000   0.000   0.000
    8       -0.000  -0.000   0.000  -0.000
    9       -0.000  -0.000   0.000  -0.000
   10       -0.000  -0.000   0.000  -0.000
   11        0.000   0.000   0.000   0.000
   12        0.000   0.000   0.000   0.000
   13        0.000   0.000   0.000   0.000
   14        0.000   0.000   0.000   0.000
   15        0.000   0.000   0.000   0.000
   16       -0.000   0.000   0.000  -0.000
   17       -0.000  -0.000   0.000  -0.000
   18        0.000   0.000   0.000   0.000
   19        0.000   0.000   0.000   0.000
   20        0.000   0.000   0.000   0.000
   21        0.000   0.000   0.000   0.000
   22        0.000   0.000   0.000   0.000
   23        0.000   0.000   0.000   0.000
   24        0.000   0.000   0.000   0.000
   25        0.000   0.000   0.000   0.000
   26        0.000   0.000   0.000   0.000
   27        0.000   0.000   0.000   0.000
   28        0.000   0.000   0.000   0.000
   29        0.000   0.000   0.000   0.000
   30        0.000   0.000   0.000   0.000
   31        0.000   0.000   0.000   0.000
   32        0.000   0.000   0.000   0.000
   33        0.000   0.000   0.000   0.000
   34        0.000   0.000   0.000   0.000
   35        0.000   0.000   0.000   0.000
   36        0.000   0.000   0.000   0.000
   37        0.000   0.000   0.000   0.000
   38       -0.000  -0.000   0.000  -0.000
   39        0.000   0.000   0.000   0.000
   40        0.000   0.000   0.000   0.000
   41       -0.000  -0.000   0.000  -0.000
   42       -0.000  -0.000   0.000  -0.000
   43       -0.000  -0.000   0.000  -0.000
   44        0.000   0.000   0.000   0.000
   45        0.000   0.000   0.000   0.000
   46       -0.000  -0.000   0.000  -0.000
   47       -0.000   0.000   0.000   0.000
   48       -0.000   0.000   0.000   0.000
   49       -0.000  -0.000   0.000  -0.000
   50        0.000   0.000   0.000   0.000
   51       -0.000  -0.000   0.000  -0.000
   52        0.000   0.000   0.000   0.000
   53        0.000   0.000   0.000   0.000
   54       -0.000  -0.000   0.000  -0.000
   55       -0.000   0.000   0.000   0.000
   56       -0.000  -0.000   0.000  -0.000
   57       -0.000  -0.000   0.000  -0.000
   58        0.000   0.000   0.000   0.000
   59       -0.000  -0.000   0.000  -0.000
   60       -0.000  -0.000   0.000  -0.000
[...]
   68        0.000   0.000   0.000   0.000
   69       -0.000  -0.000   0.000  -0.000
   70       -0.000  -0.000   0.000  -0.000
   71       -0.000  -0.000   0.000  -0.000
   72       -0.000  -0.000   0.000  -0.000
   73       -0.000  -0.000   0.000  -0.000
   74       -0.001  -0.001   0.000  -0.002
   75       -0.002  -0.008   0.000  -0.010
   76        0.000   0.000   0.000   0.000
   77       -0.000  -0.000   0.000  -0.000
   78        0.000   0.000   0.000   0.000
   79        0.000   0.002   0.000   0.002
   80        0.000   0.003   0.000   0.003
   81        0.002   0.116   0.000   0.117
   82        0.001   0.112   0.000   0.113
tot          0.001   0.223   0.000   0.224