 vasp.5.4.4.18Apr17-6-g9f103f2a35 (build May 01 2020 14:57:12) complex

 executed on             LinuxIFC date 2020.10.24  14:23:43

 INCAR:
 POTCAR:    PAW_PBE B 06Sep2000
 POTCAR:    PAW_PBE N 08Apr2002
 POTCAR:    PAW_PBE C 08Apr2002
 POTCAR:    PAW_PBE F 08Apr2002
 POTCAR:    PAW_PBE O 08Apr2002

 POTCAR:    PAW_PBE B 06Sep2000
   VRHFIN =B: s2p1

   TITEL  = PAW_PBE B 06Sep2000
   POMASS =   10.811; ZVAL   =    3.000    mass and valenz
   ENMAX  =  318.614; ENMIN  =  238.960 eV

 POTCAR:    PAW_PBE N 08Apr2002
   VRHFIN =N: s2p3

   TITEL  = PAW_PBE N 08Apr2002
   POMASS =   14.001; ZVAL   =    5.000    mass and valenz
   ENMAX  =  400.000; ENMIN  =  300.000 eV

 POTCAR:    PAW_PBE C 08Apr2002
   VRHFIN =C: s2p2

[...]

 POTCAR:    PAW_PBE F 08Apr2002
   VRHFIN =F: s2p5

[...]

 POTCAR:    PAW_PBE O 08Apr2002
   VRHFIN =O: s2p4

   TITEL  = PAW_PBE O 08Apr2002
   POMASS =   16.000; ZVAL   =    6.000    mass and valenz
   ENMAX  =  400.000; ENMIN  =  300.000 eV

 Optimization of the real space projectors (new method)

 maximal supplied QI-value         = 22.11
 optimisation between [QCUT,QGAM] = [ 11.94, 23.88] = [ 39.92,159.67] Ry
 Optimized for a Real-space Cutoff    1.18 Angstroem

   l    n(q)    QCUT    max X(q) W(low)/X(q) W(high)/X(q)  e(spline)
   0      8    11.939    53.033    0.11E-03    0.34E-03    0.60E-07
   0      8    11.939    34.740    0.11E-03    0.34E-03    0.59E-07
   1      8    11.939    30.949    0.22E-03    0.20E-03    0.17E-06
   1      8    11.939    19.518    0.20E-03    0.18E-03    0.16E-06
 Optimization of the real space projectors (new method)

[...]

   l    n(q)    QCUT    max X(q) W(low)/X(q) W(high)/X(q)  e(spline)
   0      8    11.883    14.049    0.56E-04    0.86E-04    0.22E-06
   0      8    11.883     8.945    0.81E-04    0.11E-03    0.30E-06
   1      8    11.883     7.086    0.16E-03    0.15E-04    0.31E-06
   1      8    11.883     6.747    0.15E-03    0.14E-04    0.28E-06
 Optimization of the real space projectors (new method)

 maximal supplied QI-value         = 24.76
 optimisation between [QCUT,QGAM] = [ 11.88, 24.01] = [ 39.54,161.47] Ry
 Optimized for a Real-space Cutoff    1.18 Angstroem

   l    n(q)    QCUT    max X(q) W(low)/X(q) W(high)/X(q)  e(spline)
   0      8    11.883    20.381    0.86E-04    0.11E-03    0.31E-06
   0      8    11.883    15.268    0.94E-04    0.12E-03    0.33E-06
   1      8    11.883     5.964    0.19E-03    0.18E-04    0.33E-06
   1      8    11.883     5.382    0.17E-03    0.20E-04    0.29E-06
  PAW_PBE B 06Sep2000                   :
  PAW_PBE N 08Apr2002                   :
  PAW_PBE C 08Apr2002                   :
  PAW_PBE F 08Apr2002                   :
  PAW_PBE O 08Apr2002                   :

 POSCAR: B N C F O
  positions in direct lattice
  velocities in cartesian coordinates

 METAGGA = SCAN     LMAXTAU =  6    LMIXTAU =  F

 ion  position               nearest neighbor table
   1  0.167  0.083  0.502-  17 1.45  20 1.45  21 1.45
   2  0.167  0.333  0.502-  17 1.45  18 1.45  22 1.45
   3  0.167  0.583  0.502-  18 1.45  19 1.45  23 1.45
   4  0.167  0.833  0.502-  20 1.45  19 1.45  24 1.45
   5  0.417  0.083  0.502-  21 1.45  25 1.45  24 1.45
   6  0.417  0.333  0.502-  21 1.45  22 1.45  26 1.45
   7  0.417  0.583  0.502-  22 1.45  27 1.45  23 1.45
   8  0.417  0.834  0.502-  28 1.45  24 1.45  23 1.45
   9  0.667  0.083  0.502-  29 1.45  28 1.45  25 1.45
  10  0.667  0.333  0.502-  30 1.45  25 1.45  26 1.45
  11  0.667  0.583  0.502-  31 1.45  26 1.45  27 1.45
  12  0.667  0.834  0.502-  32 1.45  28 1.45  27 1.45
  13  0.917  0.083  0.502-  17 1.45  29 1.45  32 1.45
  14  0.917  0.333  0.502-  29 1.45  30 1.45  18 1.45
  15  0.917  0.583  0.502-  30 1.45  19 1.45  31 1.45
  16  0.917  0.833  0.502-  20 1.45  32 1.45  31 1.45
  17  0.083  0.167  0.502-   2 1.45   1 1.45  13 1.45
  18  0.083  0.417  0.502-   3 1.45   2 1.45  14 1.45
  19  0.083  0.667  0.502-   3 1.45   4 1.45  15 1.45
  20  0.083  0.917  0.502-   4 1.45  16 1.45   1 1.45
  21  0.333  0.167  0.502-   6 1.45   5 1.45   1 1.45
  22  0.333  0.417  0.502-   7 1.45   6 1.45   2 1.45
  23  0.333  0.667  0.502-   7 1.45   8 1.45   3 1.45
  24  0.333  0.917  0.502-   8 1.45   5 1.45   4 1.45
  25  0.583  0.167  0.502-  10 1.45   5 1.45   9 1.45
  26  0.583  0.417  0.502-   6 1.45  11 1.45  10 1.45
  27  0.583  0.667  0.502-   7 1.45  11 1.45  12 1.45
  28  0.583  0.917  0.502-   8 1.45  12 1.45   9 1.45
  29  0.833  0.167  0.502-   9 1.45  14 1.45  13 1.45
  30  0.833  0.417  0.502-  10 1.45  15 1.45  14 1.45
  31  0.833  0.667  0.502-  11 1.45  15 1.45  16 1.45
  32  0.833  0.917  0.502-  12 1.45  16 1.45  13 1.45
  33  0.564  0.447  0.653-  36 1.34  38 1.34  37 1.35  34 1.51
  34  0.547  0.398  0.612-  39 1.33  40 1.33  33 1.51
  35  0.472  0.787  0.606-  41 1.16  42 1.16
  36  0.699  0.577  0.659-  33 1.34
  37  0.560  0.339  0.677-  33 1.35
  38  0.450  0.473  0.663-  33 1.34
  39  0.662  0.382  0.599-  34 1.33
  40  0.411  0.278  0.604-  34 1.33
  41  0.603  0.868  0.602-  35 1.16
  42  0.340  0.707  0.611-  35 1.16

IMPORTANT INFORMATION: All symmetrisations will be switched off!
NOSYMM: (Re-)initialisation of all symmetry stuff for point group C_1.

 KPOINTS: K-Point Grid

Automatic generation of k-mesh.
Space group operators:
 irot       det(A)        alpha          n_x          n_y          n_z        tau_x        tau_y        tau_z
    1     1.000000     0.000000     1.000000     0.000000     0.000000     0.000000     0.000000     0.000000

 Subroutine IBZKPT returns following result:

 Found     24 irreducible k-points:

 Following reciprocal coordinates:
            Coordinates               Weight
  0.125000  0.125000  0.000000     16.000000
  0.250000 -0.125000  0.000000     16.000000
  0.125000 -0.250000  0.000000     16.000000
  0.375000  0.125000  0.000000     16.000000
  0.500000 -0.375000  0.000000     16.000000
  0.125000  0.500000  0.000000     16.000000
 -0.125000 -0.375000  0.000000     16.000000
  0.375000  0.500000  0.000000     16.000000
  0.500000 -0.125000  0.000000     16.000000
 -0.375000  0.125000  0.000000     16.000000
 -0.250000  0.375000  0.000000     16.000000
  0.125000  0.250000  0.000000     16.000000
 -0.125000  0.375000  0.000000     16.000000
 -0.375000  0.250000  0.000000     16.000000
 -0.250000 -0.125000  0.000000     16.000000
 -0.125000  0.125000  0.000000     16.000000
  0.000000  0.125000  0.000000     16.000000
  0.125000  0.000000  0.000000     16.000000
  0.375000  0.375000  0.000000     16.000000
 -0.250000 -0.375000  0.000000     16.000000
  0.375000  0.250000  0.000000     16.000000
 -0.375000  0.375000  0.000000     16.000000
  0.000000  0.375000  0.000000     16.000000
  0.375000  0.000000  0.000000     16.000000

 Following cartesian coordinates:
            Coordinates               Weight
  0.024879  0.000000  0.000000     16.000000
  0.012439 -0.021546  0.000000     16.000000
 -0.012439 -0.021546  0.000000     16.000000
  0.049758 -0.014364  0.000000     16.000000
  0.012439 -0.050273  0.000000     16.000000
  0.062197  0.021546  0.000000     16.000000
 -0.049758 -0.014364  0.000000     16.000000
  0.087076  0.007182  0.000000     16.000000
  0.037318 -0.035909  0.000000     16.000000
 -0.024879  0.028727  0.000000     16.000000
  0.012439  0.035909  0.000000     16.000000
  0.037318  0.007182  0.000000     16.000000
  0.024879  0.028727  0.000000     16.000000
 -0.012439  0.035909  0.000000     16.000000
 -0.037318  0.007182  0.000000     16.000000
  0.000000  0.014364  0.000000     16.000000
  0.012439  0.007182  0.000000     16.000000
  0.012439 -0.007182  0.000000     16.000000
  0.074636  0.000000  0.000000     16.000000
 -0.062197 -0.007182  0.000000     16.000000
  0.062197 -0.007182  0.000000     16.000000
  0.000000  0.043091  0.000000     16.000000
  0.037318  0.021546  0.000000     16.000000
  0.037318 -0.021546  0.000000     16.000000

 SYSTEM =  SiC
 POSCAR =  B N C F O

 Startparameter for this run:
   NWRITE =      2    write-flag & timer
   PREC   = accura    normal or accurate (medium, high low for compatibility)
   ISTART =      1    job   : 0-new  1-cont  2-samecut
   ICHARG =      0    charge: 1-file 2-atom 10-const
   ISPIN  =      2    spin polarized calculation?
   LNONCOLLINEAR =      F non collinear calculations
   LSORBIT =      F    spin-orbit coupling
   INIWAV =      1    electr: 0-lowe 1-rand  2-diag
   LASPH  =      T    aspherical Exc in radial PAW
   METAGGA=      F    non-selfconsistent MetaGGA calc.

 Electronic Relaxation 1
   ENCUT  =  550.0 eV  40.42 Ry    6.36 a.u.  19.22 19.22 67.15*2*pi/ulx,y,z
   ENINI  =  550.0     initial cutoff
   ENAUG  =  644.9 eV  augmentation charge cutoff
   NELM   =    100;   NELMIN=  2; NELMDL=  0     # of ELM steps
   EDIFF  = 0.1E-04   stopping-criterion for ELM
   LREAL  =      T    real-space projection
   NLSPLINE    = F    spline interpolate recip. space projectors
   LCOMPAT=      F    compatible to vasp.4.4
   GGA_COMPAT  = T    GGA compatible to vasp.4.4-vasp.4.6
   LMAXPAW     = -100 max onsite density
   LMAXMIX     =    2 max onsite mixed and CHGCAR
   VOSKOWN=      0    Vosko Wilk Nusair interpolation
   ROPT   =   -0.00025  -0.00025  -0.00025  -0.00025
   ROPT   =   -0.00025
 Ionic relaxation
   EDIFFG = -.2E-01   stopping-criterion for IOM
   NSW    =    500    number of steps for IOM
   NBLOCK =      1;   KBLOCK =    500    inner block; outer block
   IBRION =      2    ionic relax: 0-MD 1-quasi-New 2-CG
   NFREE  =      1    steps in history (QN), initial steepest desc. (CG)
   ISIF   =      2    stress and relaxation
   IWAVPR =     11    prediction:  0-non 1-charg 2-wave 3-comb
   ISYM   =      0    0-nonsym 1-usesym 2-fastsym
   LCORR  =      T    Harris-Foulkes like correction to forces

   POTIM  = 0.5000    time-step for ionic-motion
   TEIN   =    0.0    initial temperature
   TEBEG  =    0.0;   TEEND  =   0.0 temperature during run
   SMASS  =  -3.00    Nose mass-parameter (am)
   estimated Nose-frequenzy (Omega)   =  0.10E-29 period in steps =****** mass=  -0.231E-26a.u.
   SCALEE = 1.0000    scale energy and forces
   NPACO  =    256;   APACO  = 16.0  distance and # of slots for P.C.
   PSTRESS=    0.0 pullay stress

  Mass of Ions in am
   POMASS =  10.81 14.00 12.01 19.00 16.00
  Ionic Valenz
   ZVAL   =   3.00  5.00  4.00  7.00  6.00
  Atomic Wigner-Seitz radii
  virtual crystal weights
   VCA    =   1.00  1.00  1.00  1.00  1.00
   NELECT =     186.7000    total number of electrons
   NUPDOWN=      -1.0000    fix difference up-down

 DOS related values:
   EMIN   =  10.00;   EMAX   =-10.00  energy-range for DOS
   EFERMI =   0.00
   ISMEAR =     0;   SIGMA  =   0.05  broadening in eV -4-tet -1-fermi 0-gaus

 Electronic relaxation 2 (details)
   IALGO  =     68    algorithm
   LDIAG  =      T    sub-space diagonalisation (order eigenvalues)
   LSUBROT=      F    optimize rotation matrix (better conditioning)
   TURBO    =      0    0=normal 1=particle mesh
   IRESTART =      0    0=no restart 2=restart with 2 vectors
   NREBOOT  =      0    no. of reboots
   NMIN     =      0    reboot dimension
   EREF     =   0.00    reference energy to select bands
[...]
      21 -76.4231      22 -76.4291      23 -76.4329      24 -76.4235      25 -76.4250
      26 -76.4362      27 -76.4335      28 -76.4258      29 -76.4161      30 -76.4203
      31 -76.4219      32 -76.4182      33 -67.7406      34 -65.7900      35 -66.0031
      36 -92.1130      37 -91.9891      38 -92.1161      39 -92.3292      40 -92.3323
      41 -86.6265      42 -86.6225

 E-fermi :  -6.4613     XC(G=0):  -1.6153     alpha+bet : -1.2823

[...]

 spin component 2

[...]

 k-point    24 :       0.3750    0.0000    0.0000
  band No.  band energies     occupation
      1     -35.8096      1.00000
      2     -34.9640      1.00000
      3     -33.6642      1.00000
      4     -33.4035      1.00000
      5     -33.3186      1.00000
      6     -30.9278      1.00000
      7     -29.9278      1.00000
      8     -24.9014      1.00000
      9     -24.5962      1.00000
     10     -24.1531      1.00000
     11     -24.1520      1.00000
     12     -23.3327      1.00000
     13     -23.3318      1.00000
     14     -22.9754      1.00000
     15     -22.8407      1.00000
     16     -22.8400      1.00000
     17     -22.3832      1.00000
     18     -22.0174      1.00000
     19     -22.0170      1.00000
     20     -21.9729      1.00000
     21     -21.9722      1.00000
     22     -21.5175      1.00000
     23     -21.5173      1.00000
     24     -20.6965      1.00000
     25     -17.8869      1.00000
     26     -16.2967      1.00000
     27     -16.2450      1.00000
     28     -15.9689      1.00000
     29     -15.3305      1.00000
     30     -15.3302      1.00000
     31     -15.2499      1.00000
     32     -14.8861      1.00000
     33     -14.8644      1.00000
     34     -14.8642      1.00000
     35     -14.8339      1.00000
     36     -14.8326      1.00000
     37     -14.4983      1.00000
     38     -13.7829      1.00000
     39     -13.5113      1.00000
     40     -13.4633      1.00000
     41     -13.4629      1.00000
     42     -13.3305      1.00000
     43     -13.1844      1.00000
     44     -13.1841      1.00000
     45     -13.1382      1.00000
     46     -13.1141      1.00000
     47     -12.8115      1.00000
     48     -12.8044      1.00000
     49     -12.7901      1.00000
     50     -12.5167      1.00000
     51     -12.4341      1.00000
     52     -11.9722      1.00000
     53     -11.7959      1.00000
     54     -11.7958      1.00000
     55     -11.7062      1.00000
     56     -11.4825      1.00000
     57     -11.4531      1.00000
     58     -11.2626      1.00000
     59     -11.2074      1.00000
     60     -11.2066      1.00000
[...]
    130       1.6147      0.00000
    131       1.6300      0.00000
    132       1.7645      0.00000
    133       1.7983      0.00000
    134       1.8246      0.00000
    135       1.9185      0.00000
    136       1.9463      0.00000
    137       1.9887      0.00000
    138       2.0781      0.00000
    139       2.0920      0.00000
    140       2.2507      0.00000
    141       2.2841      0.00000
    142       2.3084      0.00000
    143       2.4427      0.00000
    144       2.5205      0.00000

[...]

 soft charge-density along one line, spin component           2
         0         1         2         3         4         5         6         7         8         9
 total charge-density along one line

------------------------ aborting loop because EDIFF is reached ----------------------------------------

[...]

  FORCE on cell =-STRESS in cart. coord.  units (eV):
  Direction    XX          YY          ZZ          XY          YZ          ZX
  Alpha Z    57.55240    57.55240    57.55240
  Ewald   68853.77670 68950.46973-72872.47037   -26.38175   150.74565    43.04510
  Hartree 69471.37078 69874.38822-66043.28431   182.39759    71.77501    67.14417
  E(xc)    -833.44074  -833.27441  -838.15592     0.15121     0.07171     0.14919
  Local  ************************136441.81369  -197.87124  -213.40246  -120.65641
  n-local  -490.88634  -486.83072  -483.44980     2.02042     0.04009     0.95376
  augment   118.68794   122.05011   130.28648     2.78103    -0.40720     0.90259
  Kinetic  3256.74194  3313.43199  3607.40602    38.32361    -9.21065     8.56485
  Fock        0.00000     0.00000     0.00000     0.00000     0.00000     0.00000
  Total     -13.78820   -11.60604    -0.30180     1.42087    -0.38786     0.10326
  in kB      -7.19406    -6.05551    -0.15746     0.74135    -0.20237     0.05387

 VOLUME and BASIS-vectors are now :
  energy-cutoff  :      550.00
  volume of cell :     3070.74
      direct lattice vectors                 reciprocal lattice vectors
     5.024366704 -8.702497373  0.000000000     0.099515029 -0.057454772  0.000000000
     5.024366704  8.702497373  0.000000000     0.099515029  0.057454772  0.000000000
     0.000000000  0.000000000 35.114664386     0.000000000  0.000000000  0.028478131

  length of vectors
    10.048767154 10.048767154 35.114664386     0.114909929  0.114909929  0.028478131

 FORCES acting on ions
    electron-ion (+dipol)            ewald-force                    non-local-force                 convergence-correction
   0.118E+02 -.387E+01 0.127E+03   -.119E+02 0.391E+01 -.127E+03   0.107E-01 -.635E-02 0.109E-02   0.372E-04 -.564E-04 0.836E-04
   0.112E+02 -.628E+01 0.128E+03   -.113E+02 0.632E+01 -.128E+03   0.152E-01 -.746E-02 0.387E-02   0.174E-03 -.243E-03 -.237E-03
   0.734E+01 -.502E+01 0.130E+03   -.743E+01 0.507E+01 -.130E+03   0.177E-01 -.119E-01 0.238E-02   -.304E-03 0.222E-03 -.254E-03
   0.477E+01 -.510E+01 0.125E+03   -.483E+01 0.514E+01 -.125E+03   0.746E-02 -.767E-02 0.152E-02   0.106E-03 -.103E-04 -.436E-03
   0.112E+02 0.169E+01 0.141E+03   -.112E+02 -.165E+01 -.141E+03   0.311E-02 -.203E-02 0.185E-02   0.817E-03 -.206E-03 0.430E-03
   0.107E+02 -.596E+01 0.155E+03   -.108E+02 0.593E+01 -.155E+03   0.179E-01 -.464E-02 -.264E-02   -.390E-04 -.131E-03 0.876E-03
   0.565E+01 -.631E+01 0.148E+03   -.570E+01 0.633E+01 -.148E+03   0.831E-02 0.357E-02 0.108E-02   0.663E-03 -.833E-03 0.345E-03
   0.319E+01 -.735E+01 0.146E+03   -.318E+01 0.736E+01 -.146E+03   -.489E-02 -.162E-01 -.158E-01   0.513E-03 -.159E-03 0.414E-03
   -.678E+01 0.603E+01 0.137E+03   0.687E+01 -.609E+01 -.136E+03   -.146E-01 0.322E-02 -.131E-02   0.525E-03 -.968E-04 0.791E-03
   -.492E+01 0.122E+02 0.153E+03   0.496E+01 -.122E+02 -.153E+03   -.658E-02 0.184E-01 0.102E-02   -.706E-03 -.439E-03 0.950E-03
   -.131E+02 0.432E-01 0.149E+03   0.132E+02 -.101E+00 -.149E+03   -.196E-01 0.481E-02 0.571E-02   0.368E-03 0.685E-03 0.984E-03
   -.118E+02 0.308E+01 0.143E+03   0.119E+02 -.308E+01 -.143E+03   -.201E-01 0.433E-02 -.378E-02   0.259E-03 -.410E-03 0.705E-03
   -.506E+01 0.263E+01 0.122E+03   0.504E+01 -.261E+01 -.122E+03   -.275E-02 -.167E-02 0.199E-02   -.128E-02 0.448E-03 0.376E-03
   -.378E+01 0.776E+01 0.125E+03   0.377E+01 -.776E+01 -.125E+03   0.103E-02 0.353E-02 0.109E-02   -.834E-03 -.629E-05 0.324E-03
   -.111E+02 0.486E+01 0.131E+03   0.111E+02 -.490E+01 -.131E+03   -.331E-02 0.222E-02 0.184E-02   -.258E-03 0.221E-03 0.354E-03
   -.953E+01 0.170E+01 0.125E+03   0.956E+01 -.166E+01 -.124E+03   -.711E-02 -.485E-03 0.559E-03   -.425E-03 0.824E-03 0.325E-03
   0.123E+02 -.555E+01 0.205E+03   -.124E+02 0.560E+01 -.205E+03   0.535E-02 0.122E-03 -.125E-01   -.269E-03 -.452E-03 -.962E-03
   0.957E+01 -.199E+01 0.207E+03   -.966E+01 0.204E+01 -.207E+03   0.398E-02 -.628E-02 -.175E-01   0.181E-03 0.101E-02 -.111E-02
   0.401E+00 -.439E+01 0.209E+03   -.477E+00 0.439E+01 -.209E+03   -.439E-02 -.822E-02 -.429E-02   0.240E-04 -.803E-03 -.699E-03
   0.436E+01 -.347E+01 0.203E+03   -.440E+01 0.353E+01 -.202E+03   -.265E-02 -.440E-02 -.127E-01   0.429E-04 0.994E-03 -.136E-02
   0.279E+02 -.392E+01 0.239E+03   -.279E+02 0.396E+01 -.239E+03   0.277E-01 -.119E-02 0.306E-01   0.362E-02 -.942E-04 0.330E-02
   0.193E+02 -.162E+02 0.239E+03   -.195E+02 0.163E+02 -.239E+03   0.269E-01 -.154E-01 -.738E-02   0.231E-02 -.286E-02 0.113E-02
   0.141E+02 -.126E+02 0.238E+03   -.143E+02 0.127E+02 -.238E+03   0.285E-01 -.205E-01 0.325E-01   0.166E-02 -.832E-03 0.235E-02
   0.131E+02 -.999E+01 0.224E+03   -.132E+02 0.101E+02 -.224E+03   0.920E-02 -.342E-01 0.176E-01   0.198E-02 -.578E-03 -.785E-04
   0.318E+01 0.159E+02 0.240E+03   -.305E+01 -.160E+02 -.240E+03   0.117E-01 0.540E-02 -.312E-01   0.713E-03 -.178E-03 0.117E-02
   -.645E+01 0.191E+01 0.266E+03   0.643E+01 -.208E+01 -.265E+03   -.413E-02 0.811E-02 -.205E-01   -.197E-02 0.530E-04 0.594E-02
   -.120E+02 -.136E+01 0.246E+03   0.122E+02 0.135E+01 -.246E+03   -.172E-01 -.333E-02 -.255E-01   0.189E-02 0.126E-02 0.104E-02
   -.119E+02 -.112E+01 0.242E+03   0.121E+02 0.998E+00 -.242E+03   -.324E-01 0.194E-02 0.823E-01   0.139E-02 -.213E-02 0.342E-02
   -.117E+02 0.118E+02 0.210E+03   0.118E+02 -.118E+02 -.210E+03   -.602E-02 0.412E-02 0.846E-02   -.267E-02 0.133E-02 0.215E-02
   -.168E+02 0.196E+02 0.228E+03   0.168E+02 -.196E+02 -.228E+03   -.182E-01 0.882E-02 0.584E-02   -.231E-02 0.746E-03 0.204E-02
   -.257E+02 0.507E+01 0.224E+03   0.258E+02 -.513E+01 -.224E+03   -.258E-01 0.105E-01 0.163E-01   -.972E-03 0.170E-02 0.241E-02
   -.196E+02 0.641E+01 0.213E+03   0.197E+02 -.635E+01 -.213E+03   -.201E-01 0.261E-02 -.367E-02   -.273E-02 0.216E-02 0.165E-02
   -.326E+01 0.510E+01 -.398E+03   0.869E+00 -.760E+01 0.391E+03   0.239E+01 0.228E+01 0.818E+01   0.819E-03 0.124E-03 0.193E-02
   -.591E+02 -.894E+02 -.257E+03   0.675E+02 0.101E+03 0.260E+03   -.851E+01 -.116E+02 -.168E+01   0.911E-03 0.236E-03 0.610E-03
   -.136E+02 -.444E+02 -.359E+03   0.134E+02 0.444E+02 0.359E+03   -.204E-01 -.370E-01 -.948E-01   0.598E-02 -.193E-02 -.119E-02
   -.512E+03 0.254E+02 -.839E+03   0.571E+03 -.279E+02 0.850E+03   -.576E+02 0.196E+01 -.839E+01   -.295E-02 -.693E-04 -.145E-02
   0.193E+03 0.325E+03 -.111E+04   -.217E+03 -.363E+03 0.114E+04   0.232E+02 0.371E+02 -.352E+02   0.265E-02 0.736E-02 -.754E-02
   0.167E+03 -.425E+03 -.921E+03   -.187E+03 0.478E+03 0.939E+03   0.191E+02 -.527E+02 -.155E+02   0.900E-03 -.211E-02 -.252E-02
   -.174E+03 0.352E+03 -.384E+03   0.197E+03 -.404E+03 0.363E+03   -.223E+02 0.501E+02 0.216E+02   0.725E-02 -.137E-01 -.632E-02
   0.425E+03 -.630E+02 -.442E+03   -.483E+03 0.701E+02 0.429E+03   0.568E+02 -.686E+01 0.143E+02   -.813E-02 0.759E-03 -.471E-02
   -.281E+03 0.637E+02 -.497E+03   0.345E+03 -.903E+02 0.489E+03   -.608E+02 0.253E+02 0.892E+01   -.404E-02 0.172E-02 -.253E-02
   0.244E+03 -.172E+03 -.579E+03   -.308E+03 0.199E+03 0.590E+03   0.608E+02 -.252E+02 -.855E+01   0.166E-02 0.202E-02 -.691E-03
   -.131E+02 -.204E+02 0.163E+02   -.171E-12 -.568E-13 0.193E-11   0.131E+02 0.203E+02 -.164E+02   0.754E-02 -.444E-02 0.400E-02

 POSITION                                       TOTAL-FORCE (eV/Angst)
      1.25607     -0.72308     17.63191         0.006085     -0.001730      0.002419
      2.51210      1.45257     17.63317         0.004038     -0.001388     -0.000143
      3.76823      3.62826     17.63237         0.005899     -0.004152      0.000353
      5.02444      5.80384     17.63137         0.003717     -0.000386     -0.001427
      2.51244     -2.89874     17.63075         0.003495      0.001235      0.002398
      3.76803     -0.72307     17.63196         0.006391     -0.004184     -0.000477
      5.02443      1.45226     17.63087         0.003669      0.002469      0.002683
      6.28090      3.62861     17.62499         0.004344     -0.005918      0.000469
      3.76888     -5.07451     17.63049        -0.008236     -0.000917      0.001007
      5.02477     -2.89934     17.63362        -0.001949      0.006833      0.001180
      6.28117     -0.72331     17.63439        -0.007779      0.000061      0.003282
      7.53730      1.45238     17.62988        -0.003196      0.007218     -0.001776
      5.02463     -7.25004     17.63213        -0.000242      0.001152      0.001182
      6.28069     -5.07458     17.63293        -0.000413      0.002828      0.004086
      7.53687     -2.89895     17.63328        -0.002725      0.000843      0.003767
      8.79298     -0.72317     17.63263        -0.001134      0.001118      0.002679
      1.25636      0.72723     17.63281        -0.002232      0.001595     -0.001640
      2.51256      2.90288     17.63342        -0.003565     -0.001451     -0.001057
      3.76860      5.07838     17.63256        -0.001670      0.003009     -0.000491
      5.02459      7.25415     17.63232        -0.001827     -0.000890     -0.001908
      2.51257     -1.44837     17.63106        -0.009453      0.000658      0.005298
      3.76862      0.72712     17.63320        -0.006545      0.005285      0.000197
      5.02503      2.90281     17.63026        -0.006746      0.002158      0.004717
      6.28082      5.07857     17.62884        -0.005205      0.004158     -0.001166
      3.76860     -3.62394     17.63329        -0.000983     -0.002431     -0.001712
      5.02442     -1.44833     17.63653         0.003470     -0.000240      0.007680
      6.28078      0.72740     17.63423         0.000128     -0.004394     -0.002189
      7.53667      2.90295     17.62627         0.001327      0.002054      0.002759
      5.02454     -5.79958     17.63167         0.005242     -0.003614      0.003591
      6.28062     -3.62395     17.63337         0.004332     -0.005337      0.003370
      7.53668     -1.44841     17.63343         0.006235     -0.001874      0.004510
      8.79278      0.72736     17.63173         0.005957     -0.005777      0.001300
      5.08322     -1.02039     22.94362        -0.000209      0.002885     -0.014775
      4.74932     -1.29763     21.49957        -0.001094     -0.014216     -0.013111
      6.32769      2.74576     21.29304        -0.013077      0.007440      0.009334
      6.41078     -1.06999     23.12579         0.000666     -0.001118     -0.003288
      4.51947     -1.92031     23.78254        -0.005692      0.002800     -0.004023
      4.63686      0.19616     23.29016        -0.002257      0.006233     -0.008446
      5.24269     -2.43886     21.03627         0.000197      0.001568     -0.000100
      3.46406     -1.15780     21.20204         0.005984     -0.002468     -0.007062
      7.39143      2.30086     21.13604         0.013332     -0.006633     -0.005998
      5.26119      3.18725     21.44148         0.001722      0.005519      0.002530
    total drift:                               -0.032823     -0.148796     -0.076196

  FREE ENERGIE OF THE ION-ELECTRON SYSTEM (eV)
  free  energy   TOTEN  =      -385.55573023 eV

  energy  without entropy=     -385.55027048  energy(sigma->0) =     -385.55300035

 d Force = 0.4279962E-05[-0.109E-05, 0.965E-05]  d Energy = 0.1456248E-04-0.103E-04
 d Force = 0.3815287E+00[ 0.382E+00, 0.382E+00]  d Ewald  = 0.3815287E+00-0.364E-10

 reached required accuracy - stopping structural energy minimisation
 writing wavefunctions

 total charge

[...]

 magnetization (x)

# of ion       s       p       d       tot
    1        0.000   0.000   0.000   0.000
    2        0.000   0.000   0.000   0.000
    3        0.000   0.000   0.000   0.000
    4        0.000   0.000   0.000   0.000
    5        0.000   0.000   0.000   0.000
    6        0.000   0.000   0.000   0.000
    7        0.000   0.000   0.000   0.000
    8        0.000   0.000   0.000   0.000
    9        0.000   0.000   0.000   0.000
   10       -0.000   0.000   0.000   0.000
   11        0.000   0.000   0.000   0.000
   12       -0.000   0.000   0.000   0.000
   13        0.000   0.000   0.000   0.000
   14        0.000   0.000   0.000   0.000
   15        0.000   0.000   0.000   0.000
   16        0.000  -0.000   0.000  -0.000
   17       -0.000  -0.000   0.000  -0.000
   18       -0.000  -0.000   0.000  -0.000
   19       -0.000  -0.000   0.000  -0.000
   20       -0.000  -0.000   0.000  -0.000
   21       -0.000  -0.000   0.000  -0.000
   22       -0.000  -0.000   0.000  -0.000
   23       -0.000  -0.000   0.000  -0.000
   24       -0.000  -0.000   0.000  -0.000
   25       -0.000  -0.000   0.000  -0.000
   26        0.000   0.000   0.000   0.000
   27        0.000   0.000   0.000   0.000
   28       -0.000  -0.000   0.000  -0.000
   29       -0.000  -0.000   0.000  -0.000
   30        0.000   0.000   0.000   0.000
   31       -0.000  -0.000   0.000  -0.000
   32       -0.000  -0.000   0.000  -0.000
   33        0.004   0.011   0.000   0.015
   34        0.071   0.377   0.000   0.447
   35       -0.000   0.000   0.000   0.000
   36       -0.000  -0.000   0.000  -0.001
   37        0.001   0.030   0.000   0.031
   38       -0.000  -0.000   0.000  -0.001
   39        0.003   0.077   0.000   0.080
   40        0.003   0.077   0.000   0.080
   41        0.000   0.000   0.000   0.000
   42        0.000  -0.000   0.000  -0.000
tot          0.082   0.570   0.000   0.651