 vasp.5.4.4.18Apr17-6-g9f103f2a35 (build Jun 11 2020 13:42:08) complex

 executed on             LinuxIFC date 2021.02.03  11:15:50

 INCAR:
 POTCAR:    PAW_PBE B 06Sep2000
 POTCAR:    PAW_PBE N 08Apr2002
 POTCAR:    PAW_PBE C 08Apr2002
 POTCAR:    PAW_PBE F 08Apr2002
 POTCAR:    PAW_PBE O 08Apr2002

 POTCAR:    PAW_PBE B 06Sep2000
   VRHFIN =B: s2p1

   TITEL  = PAW_PBE B 06Sep2000
   POMASS =   10.811; ZVAL   =    3.000    mass and valenz
   ENMAX  =  318.614; ENMIN  =  238.960 eV

 POTCAR:    PAW_PBE N 08Apr2002
   VRHFIN =N: s2p3

   TITEL  = PAW_PBE N 08Apr2002
   POMASS =   14.001; ZVAL   =    5.000    mass and valenz
   ENMAX  =  400.000; ENMIN  =  300.000 eV

 POTCAR:    PAW_PBE C 08Apr2002
   VRHFIN =C: s2p2

[...]

 POTCAR:    PAW_PBE F 08Apr2002
   VRHFIN =F: s2p5

[...]

 POTCAR:    PAW_PBE O 08Apr2002
   VRHFIN =O: s2p4

   TITEL  = PAW_PBE O 08Apr2002
   POMASS =   16.000; ZVAL   =    6.000    mass and valenz
   ENMAX  =  400.000; ENMIN  =  300.000 eV

 Optimization of the real space projectors (new method)

 maximal supplied QI-value         = 22.11
 optimisation between [QCUT,QGAM] = [ 11.94, 23.88] = [ 39.92,159.67] Ry
 Optimized for a Real-space Cutoff    1.18 Angstroem

   l    n(q)    QCUT    max X(q) W(low)/X(q) W(high)/X(q)  e(spline)
   0      8    11.939    53.033    0.11E-03    0.34E-03    0.60E-07
   0      8    11.939    34.740    0.11E-03    0.34E-03    0.59E-07
   1      8    11.939    30.949    0.22E-03    0.20E-03    0.17E-06
   1      8    11.939    19.518    0.20E-03    0.18E-03    0.16E-06
 Optimization of the real space projectors (new method)

[...]

   l    n(q)    QCUT    max X(q) W(low)/X(q) W(high)/X(q)  e(spline)
   0      8    11.883    14.049    0.56E-04    0.86E-04    0.22E-06
   0      8    11.883     8.945    0.81E-04    0.11E-03    0.30E-06
   1      8    11.883     7.086    0.16E-03    0.15E-04    0.31E-06
   1      8    11.883     6.747    0.15E-03    0.14E-04    0.28E-06
 Optimization of the real space projectors (new method)

 maximal supplied QI-value         = 24.76
 optimisation between [QCUT,QGAM] = [ 11.88, 24.01] = [ 39.54,161.47] Ry
 Optimized for a Real-space Cutoff    1.18 Angstroem

   l    n(q)    QCUT    max X(q) W(low)/X(q) W(high)/X(q)  e(spline)
   0      8    11.883    20.381    0.86E-04    0.11E-03    0.31E-06
   0      8    11.883    15.268    0.94E-04    0.12E-03    0.33E-06
   1      8    11.883     5.964    0.19E-03    0.18E-04    0.33E-06
   1      8    11.883     5.382    0.17E-03    0.20E-04    0.29E-06
  PAW_PBE B 06Sep2000                   :
  PAW_PBE N 08Apr2002                   :
  PAW_PBE C 08Apr2002                   :
  PAW_PBE F 08Apr2002                   :
  PAW_PBE O 08Apr2002                   :

 POSCAR: B N C F O
  positions in direct lattice
  velocities in cartesian coordinates

 METAGGA = SCAN     LMAXTAU =  6    LMIXTAU =  F

 VTST: version 3.1, (03/28/14)

 CHAIN: initializing optimizer

 OPT: Using VASP Conjugate-Gradient optimizer
 CHAIN: Read ICHAIN            0

 POSCAR: B N C F O
  positions in direct lattice
  velocities in cartesian coordinates

 ion  position               nearest neighbor table
   1  0.111  0.056  0.500-  42 1.45  37 1.45  43 1.45
   2  0.111  0.222  0.500-  37 1.45  38 1.45  44 1.45
   3  0.111  0.389  0.500-  39 1.45  38 1.45  45 1.45
   4  0.111  0.556  0.500-  46 1.45  39 1.45  40 1.45
   5  0.111  0.722  0.500-  40 1.45  47 1.45  41 1.45
   6  0.111  0.889  0.500-  41 1.45  48 1.45  42 1.45
   7  0.278  0.056  0.500-  48 1.45  49 1.45  43 1.45
   8  0.278  0.222  0.500-  43 1.45  50 1.45  44 1.45
   9  0.278  0.389  0.500-  45 1.45  44 1.45  51 1.45
  10  0.278  0.556  0.500-  46 1.45  52 1.45  45 1.45
  11  0.278  0.722  0.500-  53 1.45  47 1.45  46 1.45
  12  0.278  0.889  0.500-  47 1.45  54 1.45  48 1.45
  13  0.444  0.056  0.500-  54 1.45  55 1.45  49 1.45
  14  0.444  0.222  0.500-  49 1.45  56 1.45  50 1.45
  15  0.444  0.389  0.500-  57 1.45  50 1.45  51 1.45
  16  0.444  0.556  0.500-  58 1.45  52 1.45  51 1.45
  17  0.444  0.722  0.500-  59 1.45  53 1.45  52 1.45
  18  0.444  0.889  0.500-  60 1.45  54 1.45  53 1.45
  19  0.611  0.056  0.500-  61 1.45  60 1.45  55 1.45
  20  0.611  0.222  0.500-  55 1.45  62 1.45  56 1.45
  21  0.611  0.389  0.500-  63 1.45  56 1.45  57 1.45
  22  0.611  0.556  0.500-  64 1.45  58 1.45  57 1.45
  23  0.611  0.722  0.500-  59 1.45  65 1.45  58 1.45
  24  0.611  0.889  0.500-  66 1.45  60 1.45  59 1.45
  25  0.778  0.056  0.500-  61 1.45  67 1.45  66 1.45
  26  0.778  0.222  0.500-  61 1.45  68 1.45  62 1.45
  27  0.778  0.389  0.500-  69 1.45  62 1.45  63 1.45
  28  0.778  0.556  0.500-  70 1.45  64 1.45  63 1.45
  29  0.778  0.722  0.500-  65 1.45  71 1.45  64 1.45
  30  0.778  0.889  0.500-  72 1.45  66 1.45  65 1.45
  31  0.944  0.056  0.500-  72 1.45  67 1.45  37 1.45
  32  0.944  0.222  0.500-  67 1.45  68 1.45  38 1.45
  33  0.944  0.389  0.500-  68 1.45  69 1.45  39 1.45
  34  0.944  0.556  0.500-  69 1.45  40 1.45  70 1.45
  35  0.944  0.722  0.500-  70 1.45  41 1.45  71 1.45
  36  0.944  0.889  0.500-  71 1.45  42 1.45  72 1.45
  37  0.056  0.111  0.500-   2 1.45   1 1.45  31 1.45
  38  0.056  0.278  0.500-   3 1.45   2 1.45  32 1.45
  39  0.056  0.444  0.500-   3 1.45   4 1.45  33 1.45
  40  0.056  0.611  0.500-   5 1.45  34 1.45   4 1.45
  41  0.056  0.778  0.500-   6 1.45  35 1.45   5 1.45
  42  0.056  0.944  0.500-   1 1.45  36 1.45   6 1.45
  43  0.222  0.111  0.500-   8 1.45   7 1.45   1 1.45
  44  0.222  0.278  0.500-   9 1.45   8 1.45   2 1.45
  45  0.222  0.444  0.500-   9 1.45  10 1.45   3 1.45
  46  0.222  0.611  0.500-  10 1.45   4 1.45  11 1.45
  47  0.222  0.778  0.500-  12 1.45  11 1.45   5 1.45
  48  0.222  0.944  0.500-   7 1.45  12 1.45   6 1.45
  49  0.389  0.111  0.500-  14 1.45   7 1.45  13 1.45
  50  0.389  0.278  0.500-  15 1.45   8 1.45  14 1.45
  51  0.389  0.444  0.500-   9 1.45  15 1.45  16 1.45
  52  0.389  0.611  0.500-  16 1.45  10 1.45  17 1.45
  53  0.389  0.778  0.500-  17 1.45  11 1.45  18 1.45
  54  0.389  0.944  0.500-  13 1.45  12 1.45  18 1.45
  55  0.556  0.111  0.500-  20 1.45  13 1.45  19 1.45
  56  0.556  0.278  0.500-  14 1.45  21 1.45  20 1.45
  57  0.556  0.444  0.500-  15 1.45  21 1.45  22 1.45
  58  0.556  0.611  0.500-  16 1.45  22 1.45  23 1.45
  59  0.556  0.778  0.500-  23 1.45  17 1.45  24 1.45
  60  0.556  0.944  0.500-  18 1.45  19 1.45  24 1.45
[...]
  68  0.889  0.278  0.500-  32 1.45  33 1.45  26 1.45
  69  0.889  0.444  0.500-  27 1.45  34 1.45  33 1.45
  70  0.889  0.611  0.500-  35 1.45  28 1.45  34 1.45
  71  0.889  0.778  0.500-  36 1.45  29 1.45  35 1.45
  72  0.889  0.944  0.500-  31 1.45  30 1.45  36 1.45
  73  0.374  0.314  0.673-  76 1.33  78 1.34  77 1.34  74 1.54
  74  0.355  0.311  0.630-  80 1.33  79 1.33  73 1.54  75 1.85
  75  0.343  0.424  0.617-  82 1.20  81 1.21  74 1.85
  76  0.462  0.396  0.682-  73 1.33
  77  0.378  0.230  0.683-  73 1.34
  78  0.297  0.314  0.692-  73 1.34
  79  0.434  0.318  0.610-  74 1.33
  80  0.269  0.227  0.620-  74 1.33
  81  0.429  0.494  0.613-  75 1.21
  82  0.252  0.394  0.616-  75 1.20

IMPORTANT INFORMATION: All symmetrisations will be switched off!
NOSYMM: (Re-)initialisation of all symmetry stuff for point group C_1.

 KPOINTS: K-Point Grid

Automatic generation of k-mesh.
Space group operators:
 irot       det(A)        alpha          n_x          n_y          n_z        tau_x        tau_y        tau_z
    1     1.000000     0.000000     1.000000     0.000000     0.000000     0.000000     0.000000     0.000000

 Subroutine IBZKPT returns following result:

 Found      5 irreducible k-points:

 Following reciprocal coordinates:
            Coordinates               Weight
  0.000000  0.000000  0.000000      1.000000
  0.333333  0.000000  0.000000      2.000000
  0.000000  0.333333  0.000000      2.000000
  0.333333  0.333333  0.000000      2.000000
 -0.333333  0.333333  0.000000      2.000000

 Following cartesian coordinates:
            Coordinates               Weight
  0.000000  0.000000  0.000000      1.000000
  0.022114 -0.012768  0.000000      2.000000
  0.022114  0.012768  0.000000      2.000000
  0.044229  0.000000  0.000000      2.000000
  0.000000  0.025535  0.000000      2.000000

 SYSTEM =  hBN
 POSCAR =  B N C F O

 Startparameter for this run:
   NWRITE =      2    write-flag & timer
   PREC   = accura    normal or accurate (medium, high low for compatibility)
   ISTART =      1    job   : 0-new  1-cont  2-samecut
   ICHARG =      0    charge: 1-file 2-atom 10-const
   ISPIN  =      2    spin polarized calculation?
   LNONCOLLINEAR =      F non collinear calculations
   LSORBIT =      F    spin-orbit coupling
   INIWAV =      1    electr: 0-lowe 1-rand  2-diag
   LASPH  =      T    aspherical Exc in radial PAW
   METAGGA=      F    non-selfconsistent MetaGGA calc.

 Electronic Relaxation 1
   ENCUT  =  550.0 eV  40.42 Ry    6.36 a.u.  28.82 28.82 67.15*2*pi/ulx,y,z
   ENINI  =  550.0     initial cutoff
   ENAUG  =  644.9 eV  augmentation charge cutoff
   NELM   =    100;   NELMIN=  2; NELMDL=  0     # of ELM steps
   EDIFF  = 0.1E-04   stopping-criterion for ELM
   LREAL  =      T    real-space projection
   NLSPLINE    = F    spline interpolate recip. space projectors
   LCOMPAT=      F    compatible to vasp.4.4
   GGA_COMPAT  = T    GGA compatible to vasp.4.4-vasp.4.6
   LMAXPAW     = -100 max onsite density
   LMAXMIX     =    2 max onsite mixed and CHGCAR
   VOSKOWN=      0    Vosko Wilk Nusair interpolation
   ROPT   =   -0.00025  -0.00025  -0.00025  -0.00025
   ROPT   =   -0.00025
 Ionic relaxation
   EDIFFG = -.5E-01   stopping-criterion for IOM
   NSW    =      0    number of steps for IOM
   NBLOCK =      1;   KBLOCK =      1    inner block; outer block
   IBRION =     -1    ionic relax: 0-MD 1-quasi-New 2-CG
   NFREE  =      1    steps in history (QN), initial steepest desc. (CG)
   ISIF   =      2    stress and relaxation
   IWAVPR =     10    prediction:  0-non 1-charg 2-wave 3-comb
   ISYM   =      0    0-nonsym 1-usesym 2-fastsym
   LCORR  =      T    Harris-Foulkes like correction to forces

   POTIM  = 0.5000    time-step for ionic-motion
   TEIN   =    0.0    initial temperature
   TEBEG  =    0.0;   TEEND  =   0.0 temperature during run
   SMASS  =  -3.00    Nose mass-parameter (am)
   estimated Nose-frequenzy (Omega)   =  0.10E-29 period in steps =****** mass=  -0.519E-26a.u.
   SCALEE = 1.0000    scale energy and forces
   NPACO  =    256;   APACO  = 16.0  distance and # of slots for P.C.
   PSTRESS=    0.0 pullay stress

  Mass of Ions in am
   POMASS =  10.81 14.00 12.01 19.00 16.00
  Ionic Valenz
   ZVAL   =   3.00  5.00  4.00  7.00  6.00
  Atomic Wigner-Seitz radii
  virtual crystal weights
   VCA    =   1.00  1.00  1.00  1.00  1.00
   NELECT =     346.4000    total number of electrons
   NUPDOWN=      -1.0000    fix difference up-down

 DOS related values:
   EMIN   = -10.00;   EMAX   =  5.00  energy-range for DOS
   EFERMI =   0.00
   ISMEAR =     0;   SIGMA  =   0.05  broadening in eV -4-tet -1-fermi 0-gaus

 Electronic relaxation 2 (details)
   IALGO  =     68    algorithm
   LDIAG  =      T    sub-space diagonalisation (order eigenvalues)
[...]
   -.740E+01 0.914E+01 0.477E+02   0.742E+01 -.913E+01 -.475E+02   -.784E-03 0.125E-02 0.665E-03   0.976E-05 -.343E-04 -.126E-03
   -.146E+02 0.829E+01 0.502E+02   0.145E+02 -.824E+01 -.500E+02   -.165E-02 -.257E-03 -.164E-03   0.638E-04 -.557E-04 -.154E-03
   -.119E+02 0.189E+01 0.476E+02   0.118E+02 -.186E+01 -.474E+02   -.124E-02 -.767E-03 -.550E-03   0.706E-04 -.227E-04 -.159E-03
   -.231E+01 -.254E+01 0.434E+02   0.226E+01 0.254E+01 -.433E+02   -.477E-03 -.846E-03 0.695E-03   0.198E-04 0.156E-04 -.139E-03
   0.153E+02 -.512E+01 0.500E+02   -.152E+02 0.514E+01 -.498E+02   0.294E-02 -.694E-03 0.945E-03   -.844E-04 0.165E-04 -.166E-03
   0.127E+02 -.104E+02 0.505E+02   -.126E+02 0.103E+02 -.503E+02   0.284E-02 -.191E-02 -.424E-03   -.874E-04 0.630E-04 -.182E-03
   0.320E+01 -.767E+01 0.460E+02   -.315E+01 0.760E+01 -.458E+02   0.710E-03 -.774E-03 -.438E-03   -.319E-04 0.601E-04 -.156E-03
   -.320E+01 -.725E+00 0.424E+02   0.320E+01 0.696E+00 -.422E+02   -.453E-03 0.137E-03 0.911E-03   0.137E-04 0.199E-04 -.123E-03
   -.132E+01 0.283E+01 0.422E+02   0.129E+01 -.282E+01 -.421E+02   0.102E-02 0.794E-03 0.132E-02   0.162E-04 -.202E-04 -.111E-03
   0.770E+01 0.115E+01 0.454E+02   -.772E+01 -.112E+01 -.452E+02   0.155E-02 0.535E-03 0.124E-02   -.284E-04 -.223E-04 -.129E-03
   0.399E+02 -.886E+01 0.105E+03   -.398E+02 0.896E+01 -.104E+03   0.109E-01 -.238E-02 0.173E-02   -.201E-03 -.947E-05 -.369E-03
   0.295E+02 -.291E+02 0.106E+03   -.293E+02 0.291E+02 -.106E+03   0.532E-02 -.716E-02 0.131E-01   -.172E-03 0.140E-03 -.443E-03
   0.833E+01 -.279E+02 0.871E+02   -.827E+01 0.278E+02 -.867E+02   -.660E-03 -.364E-02 0.131E-01   -.560E-04 0.177E-03 -.346E-03
   0.520E-01 -.102E+02 0.714E+02   -.700E-01 0.101E+02 -.711E+02   -.147E-02 -.121E-02 -.819E-03   0.484E-05 0.934E-04 -.221E-03
   0.807E+01 0.430E+01 0.707E+02   -.811E+01 -.431E+01 -.706E+02   0.407E-02 0.723E-03 -.998E-02   -.189E-04 -.139E-04 -.168E-03
   0.269E+02 0.677E+01 0.848E+02   -.269E+02 -.672E+01 -.846E+02   0.759E-02 0.477E-02 -.109E-01   -.109E-03 -.687E-04 -.226E-03
   0.414E+02 0.182E+02 0.130E+03   -.414E+02 -.181E+02 -.129E+03   0.236E-01 0.102E-01 0.110E-01   -.172E-03 -.153E-03 -.389E-03
   0.336E+02 -.168E+02 0.160E+03   -.335E+02 0.170E+02 -.160E+03   0.238E-01 -.805E-02 0.122E-01   -.180E-03 -.669E-05 -.676E-03
   0.599E+01 -.450E+02 0.135E+03   -.598E+01 0.450E+02 -.134E+03   0.524E-02 -.214E-01 0.134E-01   -.327E-04 0.219E-03 -.626E-03
   -.470E+01 -.310E+02 0.894E+02   0.465E+01 0.308E+02 -.891E+02   -.875E-03 -.699E-02 0.161E-01   0.346E-04 0.194E-03 -.361E-03
   0.436E+01 -.329E+01 0.731E+02   -.441E+01 0.319E+01 -.729E+02   0.120E-02 -.359E-03 -.366E-02   0.395E-05 0.653E-04 -.203E-03
   0.232E+02 0.181E+02 0.870E+02   -.232E+02 -.181E+02 -.868E+02   0.741E-02 0.355E-02 -.113E-01   -.745E-04 -.768E-04 -.197E-03
   0.174E+02 0.390E+02 0.113E+03   -.174E+02 -.390E+02 -.113E+03   0.536E-02 0.842E-02 -.115E-01   -.595E-04 -.177E-03 -.260E-03
   0.650E+01 0.286E+02 0.170E+03   -.638E+01 -.285E+02 -.170E+03   0.326E-02 0.147E-01 -.943E-02   -.535E-04 -.235E-03 -.592E-03
   -.212E+02 -.166E+02 0.172E+03   0.214E+02 0.168E+02 -.171E+03   -.217E-01 -.566E-02 -.316E-01   0.906E-04 0.889E-05 -.794E-03
   -.269E+02 -.352E+02 0.118E+03   0.268E+02 0.351E+02 -.117E+03   -.465E-02 -.140E-01 0.132E-01   0.150E-03 0.182E-03 -.532E-03
   -.106E+02 -.142E+02 0.796E+02   0.105E+02 0.140E+02 -.794E+02   -.101E-02 -.206E-02 0.964E-02   0.876E-04 0.115E-03 -.279E-03
   0.654E+01 0.149E+02 0.786E+02   -.658E+01 -.149E+02 -.785E+02   0.314E-02 0.148E-02 -.797E-02   0.713E-05 -.243E-04 -.178E-03
   0.494E+00 0.267E+02 0.833E+02   -.478E+00 -.267E+02 -.831E+02   0.530E-03 0.437E-03 -.587E-02   0.437E-07 -.873E-04 -.166E-03
   -.129E+02 0.423E+02 0.117E+03   0.130E+02 -.422E+02 -.117E+03   -.728E-02 0.710E-02 -.117E-01   0.178E-04 -.207E-03 -.294E-03
   -.393E+02 0.231E+02 0.141E+03   0.394E+02 -.229E+02 -.140E+03   -.252E-01 0.120E-01 0.146E-01   0.142E-03 -.184E-03 -.514E-03
   -.443E+02 -.854E+01 0.119E+03   0.442E+02 0.858E+01 -.119E+03   -.131E-01 0.248E-02 0.226E-01   0.223E-03 0.111E-04 -.511E-03
   -.242E+02 -.139E+02 0.844E+02   0.241E+02 0.138E+02 -.840E+02   -.477E-02 0.796E-04 0.137E-01   0.152E-03 0.909E-04 -.321E-03
   -.531E+01 0.281E+01 0.715E+02   0.526E+01 -.290E+01 -.713E+02   -.207E-02 -.137E-02 -.332E-02   0.591E-04 0.328E-04 -.187E-03
[...]
   -.476E+01 0.226E+00 0.731E+02   0.480E+01 -.281E+00 -.729E+02   -.316E-02 -.243E-02 -.693E-02   -.986E-06 0.294E-04 -.214E-03
   -.112E+02 0.614E+01 0.722E+02   0.112E+02 -.613E+01 -.720E+02   -.169E-04 0.106E-03 -.646E-02   0.613E-04 -.347E-04 -.200E-03
   -.318E+01 0.388E+01 0.726E+02   0.310E+01 -.384E+01 -.724E+02   0.943E-03 0.658E-03 -.805E-02   0.377E-04 -.437E-04 -.206E-03
   0.123E+02 -.325E+01 0.751E+02   -.123E+02 0.327E+01 -.749E+02   0.301E-02 -.300E-03 -.113E-01   -.582E-04 0.162E-05 -.231E-03
   0.315E+01 0.252E+02 -.414E+03   -.389E+01 -.239E+02 0.406E+03   0.887E+00 -.974E+00 0.823E+01   0.739E-04 -.929E-03 0.256E-02
   -.110E+02 -.425E+02 -.323E+03   0.167E+02 0.515E+02 0.330E+03   -.538E+01 -.833E+01 -.671E+01   -.119E-02 -.269E-02 0.364E-03
   -.434E+02 -.114E+03 -.310E+03   0.431E+02 0.113E+03 0.311E+03   0.581E+00 0.117E+01 -.127E+00   0.919E-03 0.192E-02 -.899E-03
   -.536E+03 0.875E+02 -.905E+03   0.595E+03 -.906E+02 0.921E+03   -.576E+02 0.360E+01 -.157E+02   0.165E-02 -.122E-02 0.233E-02
   0.246E+03 0.515E+03 -.883E+03   -.272E+03 -.565E+03 0.901E+03   0.259E+02 0.497E+02 -.159E+02   -.680E-03 -.213E-02 0.172E-02
   0.243E+03 -.365E+03 -.103E+04   -.270E+03 0.411E+03 0.106E+04   0.256E+02 -.443E+02 -.305E+02   -.849E-03 0.263E-03 0.286E-02
   -.215E+03 0.417E+03 -.308E+03   0.246E+03 -.458E+03 0.277E+03   -.293E+02 0.420E+02 0.318E+02   0.125E-02 -.549E-02 -.276E-02
   0.554E+03 0.292E+02 -.435E+03   -.612E+03 -.255E+02 0.420E+03   0.581E+02 -.208E+01 0.164E+02   -.548E-02 -.210E-02 -.152E-02
   -.451E+03 -.125E+03 -.440E+03   0.510E+03 0.114E+03 0.435E+03   -.574E+02 0.106E+02 0.652E+01   0.361E-02 0.900E-03 -.117E-02
   0.207E+03 -.434E+03 -.479E+03   -.253E+03 0.474E+03 0.480E+03   0.444E+02 -.387E+02 0.112E+01   -.154E-02 0.338E-02 -.931E-03
   -.580E+01 -.128E+02 0.486E+01   0.284E-13 -.171E-12 -.114E-11   0.576E+01 0.128E+02 -.482E+01   -.224E-02 -.809E-02 -.161E-01

 POSITION                                       TOTAL-FORCE (eV/Angst)
      1.25599     -0.72491     17.55789         0.000380      0.000673      0.000134
      2.51201      1.45068     17.55669         0.000187      0.006553      0.001267
      3.76825      3.62634     17.55594        -0.000013     -0.002042      0.000670
      5.02452      5.80191     17.55634         0.000335     -0.000255     -0.000178
      6.28065      7.97755     17.55804        -0.000061      0.000445     -0.000190
      7.53661     10.15313     17.55878         0.001415      0.001620      0.000568
      2.51221     -2.90074     17.55864         0.000292     -0.000258     -0.000155
      3.76805     -0.72524     17.55640         0.001111      0.002990      0.003698
      5.02432      1.45060     17.55559        -0.003043      0.008602      0.000653
      6.28055      3.62627     17.55576         0.000662      0.002007      0.000854
      7.53671      5.80188     17.55663        -0.000313     -0.000579     -0.000134
      8.79277      7.97745     17.55857         0.000367      0.001588     -0.000163
      3.76835     -5.07638     17.55900         0.003411      0.003228      0.000857
      5.02450     -2.90086     17.55897         0.000406     -0.000718      0.001187
      6.28081     -0.72534     17.55675        -0.000174      0.002532      0.004861
      7.53687      1.45070     17.55686        -0.000161      0.001297      0.001588
      8.79281      3.62625     17.55614         0.000232      0.000925     -0.000119
     10.04889      5.80189     17.55763        -0.000118     -0.000531     -0.000013
      5.02456     -7.25183     17.55847         0.000015      0.000639      0.000201
      6.28061     -5.07634     17.55887         0.002070      0.003007      0.000841
      7.53683     -2.90077     17.55781        -0.000681      0.000825      0.001324
      8.79290     -0.72496     17.55649         0.000672      0.001086      0.001041
     10.04888      1.45069     17.55625         0.000595      0.000710     -0.000402
     11.30494      3.62634     17.55724         0.000129     -0.000046     -0.000029
      6.28060     -9.42734     17.55816         0.000453      0.000095     -0.000170
      7.53678     -7.25177     17.55819         0.000428      0.000614      0.000123
      8.79290     -5.07618     17.55814         0.000413      0.001507      0.000096
     10.04897     -2.90047     17.55750        -0.000635     -0.000355      0.000210
     11.30499     -0.72483     17.55724        -0.000535     -0.000494      0.000257
     12.56103      1.45081     17.55779        -0.000428     -0.000215     -0.000522
      7.53657    -11.60296     17.55801         0.000379      0.002154     -0.000257
      8.79270     -9.42733     17.55714         0.002085     -0.001390      0.000273
     10.04895     -7.25176     17.55713         0.000727     -0.000628     -0.000132
     11.30508     -5.07612     17.55792        -0.000891      0.000288     -0.000820
     12.56105     -2.90051     17.55840         0.001015      0.001529      0.000080
     13.81707     -0.72487     17.55855         0.000359      0.001320     -0.000267
      1.25614      0.72554     17.55750        -0.000189     -0.004141     -0.000024
      2.51224      2.90106     17.55617         0.001145     -0.001337      0.001619
      3.76845      5.07660     17.55600        -0.000310      0.004932      0.001237
      5.02460      7.25236     17.55744        -0.001377     -0.001183     -0.000357
      6.28058      9.42799     17.55871         0.000234     -0.000698     -0.001115
      7.53659     11.60360     17.55874         0.001263      0.000495     -0.001352
      2.51215     -1.45026     17.55750         0.002040      0.001262      0.001088
      3.76830      0.72531     17.55672         0.002826     -0.002919     -0.000195
      5.02441      2.90090     17.55556         0.001162      0.000375      0.001692
      6.28059      5.07661     17.55570         0.000325      0.001128      0.001394
      7.53673      7.25230     17.55784        -0.001270     -0.000472     -0.000756
      8.79273      9.42790     17.55902         0.000187      0.000424     -0.001497
      3.76840     -3.62584     17.55936        -0.000526      0.000251     -0.001156
      5.02446     -1.45017     17.55858        -0.000447     -0.000082     -0.001380
      6.28039      0.72529     17.55874         0.002756     -0.001202     -0.002190
      7.53656      2.90097     17.55605         0.002378     -0.000194      0.002619
      8.79278      5.07663     17.55645         0.000395      0.000964      0.000530
     10.04888      7.25230     17.55863        -0.001229     -0.000772     -0.001429
      5.02453     -5.80139     17.55896        -0.001234     -0.001666     -0.000902
      6.28063     -3.62579     17.55904        -0.000598     -0.000844     -0.000634
      7.53675     -1.45027     17.55675        -0.002014      0.001411      0.002395
      8.79266      0.72544     17.55588         0.001810      0.000180      0.004003
     10.04883      2.90103     17.55607         0.000429      0.002430      0.001498
     11.30499      5.07675     17.55784        -0.000474     -0.000710     -0.000797
[...]
      8.79288     -7.97698     17.55742        -0.001528      0.001320     -0.000510
     10.04899     -5.80133     17.55790        -0.000300     -0.001674     -0.001264
     11.30502     -3.62567     17.55811        -0.000184     -0.001796     -0.000913
     12.56104     -1.45005     17.55827         0.000387     -0.001673     -0.001097
     13.81709      0.72560     17.55844         0.000830     -0.002189     -0.001448
      5.17834     -0.78232     23.62713        -0.009095     -0.007966     -0.049805
      5.02131     -0.57376     22.10891         0.004304      0.028617      0.011847
      5.77532      1.05945     21.66368        -0.003964     -0.020764      0.028162
      6.46858     -0.85787     23.95999        -0.006232      0.032379     -0.015847
      4.57594     -1.93144     23.97487        -0.003621     -0.018857      0.028868
      4.60087      0.22192     24.29330         0.019131      0.012778     -0.009789
      5.66109     -1.51313     21.42543         0.000719     -0.025186     -0.006577
      3.74071     -0.54461     21.76794        -0.022609     -0.023034     -0.001666
      6.95356      0.84352     21.53088         0.030806     -0.016574     -0.005196
      4.87057      1.85317     21.64110        -0.022421      0.013951      0.006107
    total drift:                               -0.039424     -0.067002      0.024987

  FREE ENERGIE OF THE ION-ELECTRON SYSTEM (eV)
  free  energy   TOTEN  =      -775.23997973 eV

  energy  without entropy=     -775.21409718  energy(sigma->0) =     -775.22703846

 stress matrix after NEB project (eV)
    -28.49384      0.61828      0.34284
      0.61833    -27.56633      0.25767
      0.34140      0.25768     -0.07061
  FORCES: max atom, RMS     0.051251    0.012206
  FORCE total and by dimension    0.110527    0.049805
  Stress total and by dimension   39.660278   28.493837
 writing wavefunctions

 total charge

[...]

 magnetization (x)

# of ion       s       p       d       tot
    1       -0.000  -0.000   0.000  -0.000
    2       -0.000  -0.000   0.000  -0.000
    3       -0.000  -0.000   0.000  -0.000
    4       -0.000  -0.000   0.000  -0.000
    5       -0.000  -0.000   0.000  -0.000
    6       -0.000  -0.000   0.000  -0.000
    7       -0.000  -0.000   0.000  -0.000
    8       -0.000  -0.000   0.000  -0.000
    9       -0.000  -0.000   0.000  -0.000
   10       -0.000  -0.000   0.000  -0.000
   11       -0.000  -0.000   0.000  -0.000
   12       -0.000  -0.000   0.000  -0.000
   13       -0.000  -0.000   0.000  -0.000
   14       -0.000  -0.000   0.000  -0.000
   15       -0.000  -0.000   0.000  -0.000
   16       -0.000   0.000   0.000   0.000
   17       -0.000  -0.000   0.000  -0.000
   18       -0.000  -0.000   0.000  -0.000
   19       -0.000  -0.000   0.000  -0.000
   20       -0.000  -0.000   0.000  -0.000
   21       -0.000  -0.000   0.000  -0.000
   22       -0.000  -0.000   0.000  -0.000
   23       -0.000  -0.000   0.000  -0.000
   24       -0.000  -0.000   0.000  -0.000
   25       -0.000  -0.000   0.000  -0.000
   26       -0.000  -0.000   0.000  -0.000
   27       -0.000  -0.000   0.000  -0.000
   28       -0.000  -0.000   0.000  -0.000
   29       -0.000  -0.000   0.000  -0.000
   30       -0.000  -0.000   0.000  -0.000
   31       -0.000  -0.000   0.000  -0.000
   32       -0.000  -0.000   0.000  -0.000
   33       -0.000  -0.000   0.000  -0.000
   34       -0.000  -0.000   0.000  -0.000
   35       -0.000  -0.000   0.000  -0.000
   36       -0.000  -0.000   0.000  -0.000
   37        0.000   0.000   0.000   0.000
   38        0.000   0.000   0.000   0.000
   39        0.000   0.000   0.000   0.000
   40        0.000   0.000   0.000   0.000
   41        0.000   0.000   0.000   0.000
   42        0.000   0.000   0.000   0.000
   43        0.000   0.000   0.000   0.000
   44        0.000   0.000   0.000   0.000
   45        0.000   0.000   0.000   0.000
   46        0.000   0.000   0.000   0.000
   47        0.000   0.000   0.000   0.000
   48        0.000   0.000   0.000   0.000
   49        0.000   0.000   0.000   0.000
   50        0.000   0.000   0.000   0.000
   51        0.000   0.000   0.000   0.000
   52        0.000   0.000   0.000   0.000
   53        0.000   0.000   0.000   0.000
   54        0.000   0.000   0.000   0.000
   55        0.000   0.000   0.000   0.000
   56        0.000   0.000   0.000   0.000
   57        0.000   0.000   0.000   0.000
   58        0.000   0.000   0.000   0.000
   59        0.000   0.000   0.000   0.000
   60        0.000   0.000   0.000   0.000
[...]
   68        0.000   0.000   0.000   0.000
   69        0.000   0.000   0.000   0.000
   70        0.000   0.000   0.000   0.000
   71        0.000   0.000   0.000   0.000
   72        0.000   0.000   0.000   0.000
   73        0.005   0.014   0.000   0.019
   74        0.035   0.189   0.000   0.223
   75       -0.014  -0.025   0.000  -0.039
   76       -0.000  -0.000   0.000  -0.000
   77        0.000   0.018   0.000   0.019
   78       -0.000  -0.001   0.000  -0.001
   79        0.001   0.048   0.000   0.050
   80        0.001   0.046   0.000   0.047
   81        0.002   0.168   0.000   0.171
   82        0.002   0.160   0.000   0.162
tot          0.033   0.619   0.000   0.653