 vasp.5.4.4.18Apr17-6-g9f103f2a35 (build May 01 2020 14:57:12) complex

 executed on             LinuxIFC date 2022.01.01  11:42:57

 INCAR:
 POTCAR:    PAW_PBE B 06Sep2000
 POTCAR:    PAW_PBE N 08Apr2002

 POTCAR:    PAW_PBE B 06Sep2000
   VRHFIN =B: s2p1

   TITEL  = PAW_PBE B 06Sep2000
   POMASS =   10.811; ZVAL   =    3.000    mass and valenz
   ENMAX  =  318.614; ENMIN  =  238.960 eV

 POTCAR:    PAW_PBE N 08Apr2002
   VRHFIN =N: s2p3

   TITEL  = PAW_PBE N 08Apr2002
   POMASS =   14.001; ZVAL   =    5.000    mass and valenz
   ENMAX  =  400.000; ENMIN  =  300.000 eV

 Optimization of the real space projectors (new method)

 maximal supplied QI-value         = 22.11
 optimisation between [QCUT,QGAM] = [ 11.94, 23.88] = [ 39.92,159.67] Ry
 Optimized for a Real-space Cutoff    1.18 Angstroem

   l    n(q)    QCUT    max X(q) W(low)/X(q) W(high)/X(q)  e(spline)
   0      8    11.939    53.033    0.11E-03    0.34E-03    0.60E-07
   0      8    11.939    34.740    0.11E-03    0.34E-03    0.59E-07
   1      8    11.939    30.949    0.22E-03    0.20E-03    0.17E-06
   1      8    11.939    19.518    0.20E-03    0.18E-03    0.16E-06
 Optimization of the real space projectors (new method)

 maximal supplied QI-value         = 25.13
 optimisation between [QCUT,QGAM] = [ 11.81, 23.88] = [ 39.08,159.64] Ry
 Optimized for a Real-space Cutoff    1.41 Angstroem

   l    n(q)    QCUT    max X(q) W(low)/X(q) W(high)/X(q)  e(spline)
   0     10    11.813    79.467    0.48E-04    0.30E-04    0.67E-06
   0     10    11.813    66.151    0.47E-04    0.30E-04    0.67E-06
   1     10    11.813    20.169    0.11E-03    0.17E-03    0.11E-05
   1     10    11.813    14.454    0.11E-03    0.17E-03    0.11E-05
  PAW_PBE B 06Sep2000                   :
  PAW_PBE N 08Apr2002                   :

 POSCAR: B N
  positions in direct lattice
  velocities in cartesian coordinates

 METAGGA = SCAN     LMAXTAU =  6    LMIXTAU =  F

 ion  position               nearest neighbor table
   1  0.167  0.083  0.500-  20 1.45  21 1.45  17 1.45
   2  0.167  0.333  0.500-  17 1.45  22 1.45  18 1.45
   3  0.167  0.583  0.500-  18 1.45  23 1.45  19 1.45
   4  0.167  0.833  0.500-  19 1.45  24 1.45  20 1.45
   5  0.417  0.083  0.500-  24 1.45  25 1.45  21 1.45
   6  0.417  0.333  0.500-  21 1.45  26 1.45  22 1.45
   7  0.417  0.583  0.500-  22 1.45  27 1.45  23 1.45
   8  0.417  0.833  0.500-  23 1.45  28 1.45  24 1.45
   9  0.667  0.083  0.500-  28 1.45  29 1.45  25 1.45
  10  0.667  0.333  0.500-  25 1.45  30 1.45  26 1.45
  11  0.667  0.583  0.500-  26 1.45  31 1.45  27 1.45
  12  0.667  0.833  0.500-  27 1.45  32 1.45  28 1.45
  13  0.917  0.083  0.500-  17 1.45  32 1.45  29 1.45
  14  0.917  0.333  0.500-  18 1.45  29 1.45  30 1.45
  15  0.917  0.583  0.500-  19 1.45  30 1.45  31 1.45
  16  0.917  0.833  0.500-  20 1.45  31 1.45  32 1.45
  17  0.083  0.167  0.500-   2 1.45  13 1.45   1 1.45
  18  0.083  0.417  0.500-   3 1.45  14 1.45   2 1.45
  19  0.083  0.667  0.500-   4 1.45  15 1.45   3 1.45
  20  0.083  0.917  0.500-   1 1.45  16 1.45   4 1.45
  21  0.333  0.167  0.500-   1 1.45   6 1.45   5 1.45
  22  0.333  0.417  0.500-   2 1.45   7 1.45   6 1.45
  23  0.333  0.667  0.500-   3 1.45   8 1.45   7 1.45
  24  0.333  0.917  0.500-   4 1.45   5 1.45   8 1.45
  25  0.583  0.167  0.500-   5 1.45  10 1.45   9 1.45
  26  0.583  0.417  0.500-   6 1.45  11 1.45  10 1.45
  27  0.583  0.667  0.500-   7 1.45  12 1.45  11 1.45
  28  0.583  0.917  0.500-   8 1.45   9 1.45  12 1.45
  29  0.833  0.167  0.500-   9 1.45  14 1.45  13 1.45
  30  0.833  0.417  0.500-  10 1.45  15 1.45  14 1.45
  31  0.833  0.667  0.500-  11 1.45  16 1.45  15 1.45
  32  0.833  0.917  0.500-  12 1.45  13 1.45  16 1.45

  LATTYP: Found a hexagonal cell.
 ALAT       =    10.0487671536
 C/A-ratio  =     3.4944251219

  Lattice vectors:

 A1 = (   5.0243667045,  -8.7024973730,   0.0000000000)
 A2 = (   5.0243667045,   8.7024973730,   0.0000000000)
 A3 = (   0.0000000000,   0.0000000000,  35.1146643856)

Analysis of symmetry for initial positions (statically):
 Subroutine PRICEL returns following result:

  Warning from LATTYP: Got some problem with cell dimensions!
  Tried to take original basis but could not verify dimensions!
  LATTYP: Found a hexagonal cell.
 ALAT       =     2.5121833522
 C/A-ratio  =    13.9777474261

[...]

  16 primitive cells build up your supercell.

 Routine SETGRP: Setting up the symmetry group for a
 hexagonal supercell.

 Subroutine GETGRP returns: Found 12 space group operations
 (whereof 12 operations were pure point group operations)
 out of a pool of 24 trial point group operations.

The static configuration has the point symmetry D_3h.

Analysis of symmetry for dynamics (positions and initial velocities):
 Subroutine PRICEL returns following result:

[...]

The dynamic configuration has the point symmetry D_3h.

Analysis of constrained symmetry for selective dynamics:
 Subroutine PRICEL returns following result:

[...]

The constrained configuration has the point symmetry D_3h.

Analysis of structural, dynamic, and magnetic symmetry:
 Subroutine PRICEL returns following result:

  Warning from LATTYP: Got some problem with cell dimensions!
  Tried to take original basis but could not verify dimensions!
  LATTYP: Found a hexagonal cell.
 ALAT       =     2.5121833522
 C/A-ratio  =    13.9777474261

  Lattice vectors:

 A1 = (   2.5121833522,   0.0000000000,   0.0000000000)
 A2 = (  -1.2560916761,  -2.1756243432,   0.0000000000)
 A3 = (   0.0000000000,   0.0000000000, -35.1146643856)

  16 primitive cells build up your supercell.

 Routine SETGRP: Setting up the symmetry group for a
 hexagonal supercell.

 Subroutine GETGRP returns: Found 12 space group operations
 (whereof 12 operations were pure point group operations)
 out of a pool of 24 trial point group operations.

The magnetic configuration has the point symmetry D_3h.

 Subroutine INISYM returns: Found 12 space group operations
 (whereof 12 operations are pure point group operations),
 and found    16 'primitive' translations

 KPOINTS: K-Point Grid

Automatic generation of k-mesh.
Space group operators:
 irot       det(A)        alpha          n_x          n_y          n_z        tau_x        tau_y        tau_z
    1     1.000000     0.000000     1.000000     0.000000     0.000000     0.000000     0.000000     0.000000
    2    -1.000000    60.000000     0.000000     0.000000    -1.000000     0.000000     0.000000     0.000000
    3     1.000000   120.000000     0.000000     0.000000    -1.000000     0.000000     0.000000     0.000000
    4    -1.000000   180.000000     0.000000     0.000000     1.000000     0.000000     0.000000     0.000000
    5     1.000000   120.000000     0.000000     0.000000     1.000000     0.000000     0.000000     0.000000
    6    -1.000000    60.000000     0.000000     0.000000     1.000000     0.000000     0.000000     0.000000
    7    -1.000000   180.000000     0.500002    -0.866024     0.000000     0.000000     0.000000     0.000000
    8     1.000000   180.000000     0.000000     1.000000     0.000000     0.000000     0.000000     0.000000
    9    -1.000000   180.000000    -0.500002    -0.866024     0.000000     0.000000     0.000000     0.000000
   10     1.000000   180.000000     0.866026     0.499998     0.000000     0.000000     0.000000     0.000000
   11    -1.000000   180.000000     1.000000     0.000000     0.000000     0.000000     0.000000     0.000000
   12     1.000000   180.000000     0.866026    -0.499998     0.000000     0.000000     0.000000     0.000000

 Subroutine IBZKPT returns following result:

 Found      6 irreducible k-points:

 Following reciprocal coordinates:
            Coordinates               Weight
  0.125000  0.125000  0.000000     48.000000
  0.375000  0.125000  0.000000     96.000000
 -0.375000  0.125000  0.000000     96.000000
 -0.125000  0.125000  0.000000     48.000000
  0.375000  0.375000  0.000000     48.000000
 -0.375000  0.375000  0.000000     48.000000

 Following cartesian coordinates:
            Coordinates               Weight
  0.024879  0.000000  0.000000     48.000000
  0.049758 -0.014364  0.000000     96.000000
 -0.024879  0.028727  0.000000     96.000000
  0.000000  0.014364  0.000000     48.000000
  0.074636  0.000000  0.000000     48.000000
  0.000000  0.043091  0.000000     48.000000

 SYSTEM =  SiC
 POSCAR =  B N

 Startparameter for this run:
   NWRITE =      2    write-flag & timer
   PREC   = accura    normal or accurate (medium, high low for compatibility)
   ISTART =      1    job   : 0-new  1-cont  2-samecut
   ICHARG =      0    charge: 1-file 2-atom 10-const
   ISPIN  =      2    spin polarized calculation?
   LNONCOLLINEAR =      F non collinear calculations
   LSORBIT =      F    spin-orbit coupling
   INIWAV =      1    electr: 0-lowe 1-rand  2-diag
   LASPH  =      T    aspherical Exc in radial PAW
   METAGGA=      F    non-selfconsistent MetaGGA calc.

 Electronic Relaxation 1
   ENCUT  =  550.0 eV  40.42 Ry    6.36 a.u.  19.22 19.22 67.15*2*pi/ulx,y,z
   ENINI  =  550.0     initial cutoff
   ENAUG  =  627.1 eV  augmentation charge cutoff
   NELM   =    100;   NELMIN=  2; NELMDL=  0     # of ELM steps
   EDIFF  = 0.1E-04   stopping-criterion for ELM
   LREAL  =      T    real-space projection
   NLSPLINE    = F    spline interpolate recip. space projectors
   LCOMPAT=      F    compatible to vasp.4.4
   GGA_COMPAT  = T    GGA compatible to vasp.4.4-vasp.4.6
   LMAXPAW     = -100 max onsite density
   LMAXMIX     =    2 max onsite mixed and CHGCAR
   VOSKOWN=      0    Vosko Wilk Nusair interpolation
   ROPT   =   -0.00025  -0.00025
 Ionic relaxation
   EDIFFG = -.2E-01   stopping-criterion for IOM
   NSW    =      0    number of steps for IOM
   NBLOCK =      1;   KBLOCK =      1    inner block; outer block
   IBRION =     -1    ionic relax: 0-MD 1-quasi-New 2-CG
   NFREE  =      1    steps in history (QN), initial steepest desc. (CG)
   ISIF   =      2    stress and relaxation
   IWAVPR =     10    prediction:  0-non 1-charg 2-wave 3-comb
   ISYM   =      2    0-nonsym 1-usesym 2-fastsym
   LCORR  =      T    Harris-Foulkes like correction to forces

   POTIM  = 0.5000    time-step for ionic-motion
   TEIN   =    0.0    initial temperature
   TEBEG  =    0.0;   TEEND  =   0.0 temperature during run
   SMASS  =  -3.00    Nose mass-parameter (am)
   estimated Nose-frequenzy (Omega)   =  0.10E-29 period in steps =****** mass=  -0.231E-26a.u.
   SCALEE = 1.0000    scale energy and forces
   NPACO  =    256;   APACO  = 16.0  distance and # of slots for P.C.
   PSTRESS=    0.0 pullay stress

  Mass of Ions in am
   POMASS =  10.81 14.00
  Ionic Valenz
   ZVAL   =   3.00  5.00
  Atomic Wigner-Seitz radii
  virtual crystal weights
   VCA    =   1.00  1.00
   NELECT =     128.0000    total number of electrons
   NUPDOWN=      -1.0000    fix difference up-down

 DOS related values:
   EMIN   =  10.00;   EMAX   =-10.00  energy-range for DOS
   EFERMI =   0.00
   ISMEAR =     0;   SIGMA  =   0.05  broadening in eV -4-tet -1-fermi 0-gaus

 Electronic relaxation 2 (details)
   IALGO  =     68    algorithm
   LDIAG  =      T    sub-space diagonalisation (order eigenvalues)
[...]
     30     -12.2746      1.00000
     31     -11.6017      1.00000
     32     -11.6017      1.00000
     33     -11.4332      1.00000
     34     -11.4275      1.00000
     35     -11.4275      1.00000
     36     -11.3569      1.00000
     37     -10.5863      1.00000
     38     -10.3637      1.00000
     39     -10.3637      1.00000
     40     -10.3395      1.00000
     41     -10.3395      1.00000
     42     -10.3353      1.00000
     43     -10.3353      1.00000
     44      -9.7496      1.00000
     45      -9.7496      1.00000
     46      -9.5713      1.00000
     47      -9.5713      1.00000
     48      -9.3324      1.00000
     49      -9.3324      1.00000
     50      -9.1930      1.00000
     51      -9.1930      1.00000
     52      -8.7541      1.00000
     53      -8.7540      1.00000
     54      -7.9919      1.00000
     55      -7.7105      1.00000
     56      -7.5744      1.00000
     57      -7.5587      1.00000
     58      -7.5587      1.00000
     59      -7.1710      1.00000
     60      -7.1710      1.00000
[...]
     86       1.1401      0.00000
     87       1.1785      0.00000
     88       1.1785      0.00000
     89       1.3787      0.00000
     90       1.3791      0.00000
     91       1.5352      0.00000
     92       1.5353      0.00000
     93       1.6971      0.00000
     94       1.7972      0.00000
     95       1.8168      0.00000
     96       1.8739      0.00000
     97       1.8853      0.00000
     98       1.9987      0.00000
     99       2.0580      0.00000
    100       2.0643      0.00000

[...]

 spin component 2

[...]

 k-point     6 :      -0.3750    0.3750    0.0000
  band No.  band energies     occupation
      1     -24.5747      1.00000
      2     -24.2691      1.00000
      3     -23.8248      1.00000
      4     -23.8248      1.00000
      5     -23.0031      1.00000
      6     -23.0031      1.00000
      7     -22.6455      1.00000
      8     -22.5102      1.00000
      9     -22.5102      1.00000
     10     -22.0519      1.00000
     11     -21.6845      1.00000
     12     -21.6845      1.00000
     13     -21.6405      1.00000
     14     -21.6404      1.00000
     15     -21.1838      1.00000
     16     -21.1838      1.00000
     17     -15.0057      1.00000
     18     -15.0057      1.00000
     19     -14.5607      1.00000
     20     -14.5389      1.00000
     21     -14.5389      1.00000
     22     -14.5076      1.00000
     23     -14.5076      1.00000
     24     -13.4557      1.00000
     25     -13.1346      1.00000
     26     -13.1346      1.00000
     27     -12.8565      1.00000
     28     -12.8565      1.00000
     29     -12.4755      1.00000
     30     -12.4755      1.00000
     31     -11.4657      1.00000
     32     -11.4657      1.00000
     33     -11.2005      1.00000
     34     -10.8763      1.00000
     35     -10.8763      1.00000
     36     -10.8125      1.00000
     37     -10.8124      1.00000
     38     -10.7886      1.00000
     39     -10.5054      1.00000
     40     -10.5054      1.00000
     41     -10.1861      1.00000
     42     -10.1861      1.00000
     43     -10.1641      1.00000
     44      -9.9787      1.00000
     45      -9.9787      1.00000
     46      -9.8437      1.00000
     47      -9.3104      1.00000
     48      -9.0861      1.00000
     49      -9.0861      1.00000
     50      -9.0538      1.00000
     51      -9.0538      1.00000
     52      -8.5479      1.00000
     53      -8.3591      1.00000
     54      -8.3591      1.00000
     55      -8.2803      1.00000
     56      -8.1922      1.00000
     57      -7.7888      1.00000
     58      -7.6828      1.00000
     59      -7.1366      1.00000
     60      -7.1366      1.00000
[...]
     86       1.2880      0.00000
     87       1.2888      0.00000
     88       1.3511      0.00000
     89       1.3512      0.00000
     90       1.4179      0.00000
     91       1.4870      0.00000
     92       1.4870      0.00000
     93       1.4950      0.00000
     94       1.5924      0.00000
     95       1.5931      0.00000
     96       1.6664      0.00000
     97       1.7408      0.00000
     98       1.7414      0.00000
     99       1.9062      0.00000
    100       2.1422      0.00000

 soft charge-density along one line, spin component           1
         0         1         2         3         4         5         6         7         8         9
 total charge-density along one line

 soft charge-density along one line, spin component           2
         0         1         2         3         4         5         6         7         8         9
 total charge-density along one line

------------------------ aborting loop because EDIFF is reached ----------------------------------------

 total charge

# of ion       s       p       d       tot
    1        0.744   1.394   0.000   2.138
    2        0.744   1.394   0.000   2.138
    3        0.744   1.394   0.000   2.138
    4        0.744   1.394   0.000   2.138
    5        0.744   1.394   0.000   2.138
    6        0.744   1.394   0.000   2.138
    7        0.744   1.394   0.000   2.138
    8        0.744   1.394   0.000   2.138
    9        0.744   1.394   0.000   2.138
   10        0.744   1.394   0.000   2.138
   11        0.744   1.394   0.000   2.138
   12        0.744   1.394   0.000   2.138
   13        0.744   1.394   0.000   2.138
   14        0.744   1.394   0.000   2.138
   15        0.744   1.394   0.000   2.138
   16        0.744   1.394   0.000   2.138
   17        1.238   2.823   0.000   4.061
   18        1.238   2.823   0.000   4.061
   19        1.238   2.823   0.000   4.061
   20        1.238   2.823   0.000   4.061
   21        1.238   2.823   0.000   4.061
   22        1.238   2.823   0.000   4.061
   23        1.238   2.823   0.000   4.061
   24        1.238   2.823   0.000   4.061
   25        1.238   2.823   0.000   4.061
   26        1.238   2.823   0.000   4.061
   27        1.238   2.823   0.000   4.061
   28        1.238   2.823   0.000   4.061
   29        1.238   2.823   0.000   4.061
   30        1.238   2.823   0.000   4.061
   31        1.238   2.823   0.000   4.061
   32        1.238   2.823   0.000   4.061
tot         31.714  67.461   0.000  99.175

 magnetization (x)

[...]

  FORCE on cell =-STRESS in cart. coord.  units (eV):
  Direction    XX          YY          ZZ          XY          YZ          ZX
  Alpha Z    29.66605    29.66605    29.66605
  Ewald   45257.64045 45257.63517-49602.99917     0.00000     0.00000    -0.00000
  Hartree 45019.44579 45019.44628-44550.39242     0.00023     0.00000    -0.00000
  E(xc)    -513.57401  -513.57404  -518.93888     0.02357    -0.00000    -0.00000
  Local  -91631.81898-91631.82343 92555.25948     0.00363    -0.00000     0.00000
  n-local  -239.37994  -239.37898  -237.99711    -0.06302     0.00000     0.00000
  augment    16.83117    16.83134    19.84524     0.00009    -0.00000    -0.00000
  Kinetic  2049.75000  2049.74532  2305.23085     0.82836    -0.00000    -0.00000
  Fock        0.00000     0.00000     0.00000     0.00000     0.00000     0.00000
  Total     -11.44582   -11.44592    -0.32595     0.00000    -0.00000     0.00000
  in kB      -5.97192    -5.97197    -0.17007     0.00000    -0.00000     0.00000

 VOLUME and BASIS-vectors are now :
  energy-cutoff  :      550.00
  volume of cell :     3070.74
      direct lattice vectors                 reciprocal lattice vectors
     5.024366704 -8.702497373  0.000000000     0.099515029 -0.057454772  0.000000000
     5.024366704  8.702497373  0.000000000     0.099515029  0.057454772  0.000000000
     0.000000000  0.000000000 35.114664386     0.000000000  0.000000000  0.028478131

  length of vectors
    10.048767154 10.048767154 35.114664386     0.114909929  0.114909929  0.028478131

 FORCES acting on ions
    electron-ion (+dipol)            ewald-force                    non-local-force                 convergence-correction
   0.141E-03 -.502E-03 -.150E-09   -.320E-13 0.777E-03 -.164E-18   0.291E-18 0.933E-18 -.614E-24   0.279E-09 -.836E-09 0.528E-12
   0.141E-03 -.502E-03 -.150E-09   -.320E-13 0.777E-03 -.482E-18   0.329E-18 -.243E-18 -.517E-25   0.279E-09 -.836E-09 0.528E-12
   0.141E-03 -.502E-03 -.150E-09   -.224E-13 0.777E-03 -.174E-18   0.227E-17 0.268E-17 -.801E-24   0.279E-09 -.836E-09 0.528E-12
   0.141E-03 -.502E-03 -.150E-09   0.000E+00 0.777E-03 0.854E-19   0.106E-17 0.169E-17 -.310E-24   0.279E-09 -.836E-09 0.528E-12
   0.141E-03 -.502E-03 -.152E-09   -.202E-13 0.777E-03 -.269E-18   0.407E-18 -.106E-17 0.724E-24   0.279E-09 -.836E-09 0.529E-12
   0.141E-03 -.502E-03 -.152E-09   -.217E-13 0.777E-03 -.589E-18   0.421E-20 0.213E-17 0.125E-23   0.279E-09 -.836E-09 0.528E-12
   0.141E-03 -.502E-03 -.151E-09   0.000E+00 0.777E-03 -.250E-18   0.207E-17 0.331E-17 0.556E-24   0.279E-09 -.836E-09 0.528E-12
   0.141E-03 -.502E-03 -.150E-09   -.533E-14 0.777E-03 0.606E-19   0.157E-17 0.248E-17 -.982E-24   0.279E-09 -.836E-09 0.528E-12
   0.141E-03 -.502E-03 -.146E-09   -.134E-13 0.777E-03 0.168E-18   0.134E-17 0.339E-17 -.827E-24   0.279E-09 -.836E-09 0.529E-12
   0.141E-03 -.502E-03 -.145E-09   -.135E-13 0.777E-03 -.198E-18   0.767E-18 0.707E-18 0.465E-24   0.279E-09 -.836E-09 0.529E-12
   0.141E-03 -.502E-03 -.145E-09   -.711E-14 0.777E-03 0.206E-18   -.912E-18 -.119E-17 0.141E-23   0.279E-09 -.836E-09 0.529E-12
   0.141E-03 -.502E-03 -.145E-09   0.000E+00 0.777E-03 0.518E-18   0.123E-17 0.405E-17 0.310E-24   0.279E-09 -.836E-09 0.529E-12
   0.141E-03 -.502E-03 -.188E-09   0.142E-13 0.777E-03 0.291E-18   0.231E-17 0.153E-17 -.310E-24   0.279E-09 -.836E-09 0.528E-12
   0.141E-03 -.502E-03 -.188E-09   0.195E-13 0.777E-03 -.145E-18   0.158E-17 0.338E-17 -.698E-24   0.279E-09 -.836E-09 0.528E-12
   0.141E-03 -.502E-03 -.188E-09   0.444E-14 0.777E-03 0.274E-18   0.193E-17 0.181E-17 0.698E-24   0.279E-09 -.836E-09 0.528E-12
   0.141E-03 -.502E-03 -.188E-09   0.209E-15 0.777E-03 0.584E-18   -.104E-17 -.143E-17 0.394E-24   0.279E-09 -.836E-09 0.528E-12
   -.305E-02 0.483E-03 -.566E-10   0.284E-13 -.777E-03 -.226E-18   0.272E-18 0.219E-17 -.290E-23   -.265E-08 0.298E-09 0.890E-12
   -.305E-02 0.483E-03 -.568E-10   0.142E-13 -.777E-03 -.524E-18   0.362E-18 -.134E-17 0.341E-23   -.265E-08 0.298E-09 0.890E-12
   -.305E-02 0.483E-03 -.566E-10   0.284E-13 -.777E-03 0.168E-18   -.224E-17 -.825E-18 0.331E-23   -.265E-08 0.298E-09 0.890E-12
   -.305E-02 0.483E-03 -.568E-10   0.142E-13 -.777E-03 0.530E-18   0.493E-18 -.835E-18 0.411E-23   -.265E-08 0.298E-09 0.891E-12
   -.305E-02 0.483E-03 -.877E-10   0.533E-14 -.777E-03 -.777E-18   -.423E-18 -.703E-18 0.290E-23   -.265E-08 0.298E-09 0.891E-12
   -.305E-02 0.483E-03 -.878E-10   0.542E-14 -.777E-03 -.106E-17   0.138E-17 -.753E-18 -.114E-23   -.265E-08 0.298E-09 0.891E-12
   -.305E-02 0.483E-03 -.877E-10   0.355E-13 -.777E-03 -.338E-18   0.797E-18 -.132E-18 0.620E-24   -.265E-08 0.298E-09 0.891E-12
   -.305E-02 0.483E-03 -.880E-10   0.110E-13 -.777E-03 -.154E-18   -.178E-17 -.141E-17 0.558E-23   -.265E-08 0.298E-09 0.892E-12
   -.305E-02 0.483E-03 -.717E-10   -.234E-13 -.777E-03 -.155E-18   -.184E-17 -.373E-19 0.703E-23   -.265E-08 0.298E-09 0.893E-12
   -.305E-02 0.483E-03 -.716E-10   0.533E-14 -.777E-03 -.399E-18   0.583E-18 -.625E-18 0.227E-23   -.265E-08 0.298E-09 0.892E-12
   -.305E-02 0.483E-03 -.715E-10   0.355E-13 -.777E-03 0.299E-18   0.791E-18 -.947E-18 -.196E-23   -.265E-08 0.298E-09 0.892E-12
   -.305E-02 0.483E-03 -.713E-10   0.107E-13 -.777E-03 0.498E-18   0.481E-18 0.923E-18 0.662E-23   -.265E-08 0.298E-09 0.893E-12
   -.305E-02 0.483E-03 -.209E-10   -.142E-13 -.777E-03 0.216E-18   -.286E-18 -.698E-18 0.248E-23   -.265E-08 0.298E-09 0.890E-12
   -.305E-02 0.483E-03 -.208E-10   -.614E-14 -.777E-03 0.953E-19   -.135E-17 0.160E-18 0.910E-23   -.265E-08 0.298E-09 0.892E-12
   -.305E-02 0.483E-03 -.208E-10   0.355E-14 -.777E-03 0.862E-18   -.253E-18 0.101E-17 0.786E-23   -.265E-08 0.298E-09 0.891E-12
   -.305E-02 0.483E-03 -.209E-10   -.173E-13 -.777E-03 0.105E-17   0.680E-18 0.809E-18 -.207E-23   -.265E-08 0.298E-09 0.891E-12
   -.471E-01 -.494E-03 -.191E-07   0.731E-14 0.168E-13 0.578E-33   0.129E-16 0.210E-16 0.484E-22   -.379E-07 -.861E-08 0.227E-10

 POSITION                                       TOTAL-FORCE (eV/Angst)
      1.25610     -0.72521     17.55733         0.000000      0.000000      0.000000
      2.51219      1.45042     17.55733         0.000000      0.000000      0.000000
      3.76828      3.62604     17.55733         0.000000      0.000000      0.000000
      5.02437      5.80167     17.55733         0.000000      0.000000      0.000000
      2.51219     -2.90083     17.55733         0.000000      0.000000      0.000000
      3.76828     -0.72521     17.55733         0.000000      0.000000      0.000000
      5.02437      1.45042     17.55733         0.000000      0.000000      0.000000
      6.28046      3.62604     17.55733         0.000000      0.000000      0.000000
      3.76828     -5.07646     17.55733         0.000000      0.000000      0.000000
      5.02437     -2.90083     17.55733         0.000000      0.000000      0.000000
      6.28046     -0.72521     17.55733         0.000000      0.000000      0.000000
      7.53656      1.45042     17.55733         0.000000      0.000000      0.000000
      5.02437     -7.25208     17.55733         0.000000      0.000000      0.000000
      6.28046     -5.07646     17.55733         0.000000      0.000000      0.000000
      7.53656     -2.90083     17.55733         0.000000      0.000000      0.000000
      8.79265     -0.72521     17.55733         0.000000      0.000000      0.000000
      1.25610      0.72521     17.55733         0.000000     -0.000000      0.000000
      2.51219      2.90083     17.55733         0.000000     -0.000000      0.000000
      3.76828      5.07646     17.55733        -0.000000     -0.000000     -0.000000
      5.02437      7.25208     17.55733         0.000000     -0.000000     -0.000000
      2.51219     -1.45042     17.55733         0.000000     -0.000000     -0.000000
      3.76828      0.72521     17.55733         0.000000     -0.000000      0.000000
      5.02437      2.90083     17.55733        -0.000000     -0.000000      0.000000
      6.28046      5.07646     17.55733        -0.000000     -0.000000     -0.000000
      3.76828     -3.62604     17.55733        -0.000000     -0.000000     -0.000000
      5.02437     -1.45042     17.55733        -0.000000     -0.000000     -0.000000
      6.28046      0.72521     17.55733         0.000000     -0.000000      0.000000
      7.53656      2.90083     17.55733         0.000000     -0.000000      0.000000
      5.02437     -5.80167     17.55733         0.000000     -0.000000      0.000000
      6.28046     -3.62604     17.55733        -0.000000     -0.000000     -0.000000
      7.53656     -1.45042     17.55733        -0.000000     -0.000000     -0.000000
      8.79265      0.72521     17.55733         0.000000     -0.000000      0.000000
    total drift:                               -0.047146     -0.000494     -0.000000

  FREE ENERGIE OF THE ION-ELECTRON SYSTEM (eV)
  free  energy   TOTEN  =      -313.82914505 eV

  energy  without entropy=     -313.82914505  energy(sigma->0) =     -313.82914505

 writing wavefunctions

 total charge

[...]

 magnetization (x)

# of ion       s       p       d       tot
    1        0.000   0.000   0.000   0.000
    2        0.000   0.000   0.000   0.000
    3        0.000   0.000   0.000   0.000
    4        0.000   0.000   0.000   0.000
    5        0.000   0.000   0.000   0.000
    6        0.000   0.000   0.000   0.000
    7        0.000   0.000   0.000   0.000
    8        0.000   0.000   0.000   0.000
    9        0.000   0.000   0.000   0.000
   10        0.000   0.000   0.000   0.000
   11        0.000   0.000   0.000   0.000
   12        0.000   0.000   0.000   0.000
   13        0.000   0.000   0.000   0.000
   14        0.000   0.000   0.000   0.000
   15        0.000   0.000   0.000   0.000
   16        0.000   0.000   0.000   0.000
   17       -0.000  -0.000   0.000  -0.000
   18       -0.000  -0.000   0.000  -0.000
   19       -0.000  -0.000   0.000  -0.000
   20       -0.000  -0.000   0.000  -0.000
   21       -0.000  -0.000   0.000  -0.000
   22       -0.000  -0.000   0.000  -0.000
   23       -0.000  -0.000   0.000  -0.000
   24       -0.000  -0.000   0.000  -0.000
   25       -0.000  -0.000   0.000  -0.000
   26       -0.000  -0.000   0.000  -0.000
   27       -0.000  -0.000   0.000  -0.000
   28       -0.000  -0.000   0.000  -0.000
   29       -0.000  -0.000   0.000  -0.000
   30       -0.000  -0.000   0.000  -0.000
   31       -0.000  -0.000   0.000  -0.000
   32       -0.000  -0.000   0.000  -0.000
tot          0.000  -0.000   0.000  -0.000