 vasp.5.4.4.18Apr17-6-g9f103f2a35 (build May 01 2020 14:57:12) complex

 executed on             LinuxIFC date 2021.03.17  21:11:56

 INCAR:
 POTCAR:    PAW_PBE B 06Sep2000
 POTCAR:    PAW_PBE N 08Apr2002
 POTCAR:    PAW_PBE O 08Apr2002

 POTCAR:    PAW_PBE B 06Sep2000
   VRHFIN =B: s2p1

   TITEL  = PAW_PBE B 06Sep2000
   POMASS =   10.811; ZVAL   =    3.000    mass and valenz
   ENMAX  =  318.614; ENMIN  =  238.960 eV

 POTCAR:    PAW_PBE N 08Apr2002
   VRHFIN =N: s2p3

   TITEL  = PAW_PBE N 08Apr2002
   POMASS =   14.001; ZVAL   =    5.000    mass and valenz
   ENMAX  =  400.000; ENMIN  =  300.000 eV

 POTCAR:    PAW_PBE O 08Apr2002
   VRHFIN =O: s2p4

   TITEL  = PAW_PBE O 08Apr2002
   POMASS =   16.000; ZVAL   =    6.000    mass and valenz
   ENMAX  =  400.000; ENMIN  =  300.000 eV

 Optimization of the real space projectors (new method)

 maximal supplied QI-value         = 22.11
 optimisation between [QCUT,QGAM] = [ 11.94, 23.88] = [ 39.92,159.67] Ry
 Optimized for a Real-space Cutoff    1.18 Angstroem

   l    n(q)    QCUT    max X(q) W(low)/X(q) W(high)/X(q)  e(spline)
   0      8    11.939    53.033    0.11E-03    0.34E-03    0.60E-07
   0      8    11.939    34.740    0.11E-03    0.34E-03    0.59E-07
   1      8    11.939    30.949    0.22E-03    0.20E-03    0.17E-06
   1      8    11.939    19.518    0.20E-03    0.18E-03    0.16E-06
 Optimization of the real space projectors (new method)

[...]

   l    n(q)    QCUT    max X(q) W(low)/X(q) W(high)/X(q)  e(spline)
   0     10    11.813    79.467    0.48E-04    0.30E-04    0.67E-06
   0     10    11.813    66.151    0.47E-04    0.30E-04    0.67E-06
   1     10    11.813    20.169    0.11E-03    0.17E-03    0.11E-05
   1     10    11.813    14.454    0.11E-03    0.17E-03    0.11E-05
 Optimization of the real space projectors (new method)

 maximal supplied QI-value         = 24.76
 optimisation between [QCUT,QGAM] = [ 11.88, 24.01] = [ 39.54,161.47] Ry
 Optimized for a Real-space Cutoff    1.18 Angstroem

   l    n(q)    QCUT    max X(q) W(low)/X(q) W(high)/X(q)  e(spline)
   0      8    11.883    20.381    0.86E-04    0.11E-03    0.31E-06
   0      8    11.883    15.268    0.94E-04    0.12E-03    0.33E-06
   1      8    11.883     5.964    0.19E-03    0.18E-04    0.33E-06
   1      8    11.883     5.382    0.17E-03    0.20E-04    0.29E-06
  PAW_PBE B 06Sep2000                   :
  PAW_PBE N 08Apr2002                   :
  PAW_PBE O 08Apr2002                   :

 POSCAR: B N O
  positions in direct lattice
  velocities in cartesian coordinates

 METAGGA = SCAN     LMAXTAU =  6    LMIXTAU =  F

 ion  position               nearest neighbor table
   1  0.166  0.083  0.500-  17 1.45  20 1.45  21 1.47
   2  0.166  0.333  0.500-  17 1.45  18 1.45  22 1.47
   3  0.167  0.583  0.500-  18 1.45  23 1.45  19 1.45
   4  0.167  0.833  0.500-  20 1.45  19 1.45  24 1.45
   5  0.416  0.083  0.500-  24 1.44  25 1.45  21 1.45
   6  0.412  0.331  0.500-  21 1.42  22 1.42  32 1.49
   7  0.416  0.584  0.500-  23 1.44  22 1.45  26 1.45
   8  0.417  0.833  0.500-  27 1.45  23 1.45  24 1.45
   9  0.667  0.083  0.500-  28 1.45  27 1.45  25 1.47
  10  0.669  0.331  0.500-  25 1.42  29 1.42  32 1.49
  11  0.669  0.588  0.500-  30 1.42  26 1.42  32 1.49
  12  0.667  0.834  0.500-  31 1.45  27 1.45  26 1.47
  13  0.917  0.083  0.500-  17 1.45  31 1.45  28 1.45
  14  0.917  0.333  0.500-  28 1.45  18 1.45  29 1.47
  15  0.917  0.584  0.500-  19 1.44  29 1.45  30 1.45
  16  0.917  0.834  0.500-  31 1.45  20 1.45  30 1.47
  17  0.083  0.167  0.500-   2 1.45   1 1.45  13 1.45
  18  0.083  0.417  0.500-  14 1.45   2 1.45   3 1.45
  19  0.083  0.667  0.500-  15 1.44   4 1.45   3 1.45
  20  0.083  0.917  0.500-   1 1.45  16 1.45   4 1.45
  21  0.335  0.168  0.500-   6 1.42   5 1.45   1 1.47
  22  0.335  0.417  0.500-   6 1.42   7 1.45   2 1.47
  23  0.333  0.667  0.500-   7 1.44   3 1.45   8 1.45
  24  0.333  0.917  0.500-   5 1.44   4 1.45   8 1.45
  25  0.583  0.168  0.500-  10 1.42   5 1.45   9 1.47
  26  0.583  0.665  0.500-  11 1.42   7 1.45  12 1.47
  27  0.583  0.917  0.500-   9 1.45  12 1.45   8 1.45
  28  0.833  0.167  0.500-   9 1.45  14 1.45  13 1.45
  29  0.832  0.417  0.500-  10 1.42  15 1.45  14 1.47
  30  0.832  0.665  0.500-  11 1.42  15 1.45  16 1.47
  31  0.833  0.917  0.500-  12 1.45  16 1.45  13 1.45
  32  0.583  0.417  0.500-   6 1.49  11 1.49  10 1.49

  LATTYP: Found a hexagonal cell.
 ALAT       =    10.0487671536
 C/A-ratio  =     3.4944251219

  Lattice vectors:

 A1 = (   5.0243667045,  -8.7024973730,   0.0000000000)
 A2 = (   5.0243667045,   8.7024973730,   0.0000000000)
 A3 = (   0.0000000000,   0.0000000000,  35.1146643856)

Analysis of symmetry for initial positions (statically):
 Subroutine PRICEL returns:
 Original cell was already a primitive cell.

 Routine SETGRP: Setting up the symmetry group for a
 hexagonal supercell.

 Subroutine GETGRP returns: Found 12 space group operations
 (whereof  4 operations were pure point group operations)
 out of a pool of 24 trial point group operations.

The static configuration has the point symmetry C_2v.
 The point group associated with its full space group is D_3h.

Analysis of symmetry for dynamics (positions and initial velocities):
 Subroutine PRICEL returns:
 Original cell was already a primitive cell.

[...]

The dynamic configuration has the point symmetry C_2v.
 The point group associated with its full space group is D_3h.

Analysis of constrained symmetry for selective dynamics:
 Subroutine PRICEL returns:
 Original cell was already a primitive cell.

[...]

The constrained configuration has the point symmetry C_2v.
 The point group associated with its full space group is D_3h.

Analysis of structural, dynamic, and magnetic symmetry:
 Subroutine PRICEL returns:
 Original cell was already a primitive cell.

 Routine SETGRP: Setting up the symmetry group for a
 hexagonal supercell.

 Subroutine GETGRP returns: Found 12 space group operations
 (whereof  4 operations were pure point group operations)
 out of a pool of 24 trial point group operations.

The magnetic configuration has the point symmetry C_2v.
 The point group associated with its full space group is D_3h.

 Subroutine INISYM returns: Found 12 space group operations
 (whereof  4 operations are pure point group operations),
 and found     1 'primitive' translations

 KPOINTS: K-Point Grid

Automatic generation of k-mesh.
Space group operators:
 irot       det(A)        alpha          n_x          n_y          n_z        tau_x        tau_y        tau_z
    1     1.000000     0.000000     1.000000     0.000000     0.000000     0.000000     0.000000     0.000000
    2    -1.000000   180.000000     0.000000     0.000000     1.000000     0.000000     0.000000     0.000000
    3     1.000000   180.000000     0.000000     1.000000     0.000000     0.000000     0.000000     0.000000
    4    -1.000000   180.000000     1.000000     0.000000     0.000000     0.000000     0.000000     0.000000
    5    -1.000000    60.000000     0.000000     0.000000    -1.000000     0.750001     0.000001     0.000000
    6     1.000000   120.000000     0.000000     0.000000    -1.000000     0.000001     0.250000     0.000000
    7     1.000000   120.000000     0.000000     0.000000     1.000000     0.750001     0.000001     0.000000
    8    -1.000000    60.000000     0.000000     0.000000     1.000000     0.000001     0.250000     0.000000
    9    -1.000000   180.000000     0.500002    -0.866024     0.000000     0.750001     0.000000     0.000000
   10    -1.000000   180.000000    -0.500002    -0.866024     0.000000     0.000000     0.250000     0.000000
   11     1.000000   180.000000     0.866026     0.499998     0.000000     0.750001     0.000000     0.000000
   12     1.000000   180.000000     0.866026    -0.499998     0.000000     0.000000     0.250000     0.000000

 Subroutine IBZKPT returns following result:

 Found      6 irreducible k-points:

 Following reciprocal coordinates:
            Coordinates               Weight
  0.125000  0.125000  0.000000     48.000000
  0.375000  0.125000  0.000000     96.000000
 -0.375000  0.125000  0.000000     96.000000
 -0.125000  0.125000  0.000000     48.000000
  0.375000  0.375000  0.000000     48.000000
 -0.375000  0.375000  0.000000     48.000000

 Following cartesian coordinates:
            Coordinates               Weight
  0.024879  0.000000  0.000000     48.000000
  0.049758 -0.014364  0.000000     96.000000
 -0.024879  0.028727  0.000000     96.000000
  0.000000  0.014364  0.000000     48.000000
  0.074636  0.000000  0.000000     48.000000
  0.000000  0.043091  0.000000     48.000000

 SYSTEM =  SiC
 POSCAR =  B N O

 Startparameter for this run:
   NWRITE =      2    write-flag & timer
   PREC   = accura    normal or accurate (medium, high low for compatibility)
   ISTART =      1    job   : 0-new  1-cont  2-samecut
   ICHARG =      0    charge: 1-file 2-atom 10-const
   ISPIN  =      2    spin polarized calculation?
   LNONCOLLINEAR =      F non collinear calculations
   LSORBIT =      F    spin-orbit coupling
   INIWAV =      1    electr: 0-lowe 1-rand  2-diag
   LASPH  =      T    aspherical Exc in radial PAW
   METAGGA=      F    non-selfconsistent MetaGGA calc.

 Electronic Relaxation 1
   ENCUT  =  550.0 eV  40.42 Ry    6.36 a.u.  19.22 19.22 67.15*2*pi/ulx,y,z
   ENINI  =  550.0     initial cutoff
   ENAUG  =  627.1 eV  augmentation charge cutoff
   NELM   =    100;   NELMIN=  2; NELMDL=  0     # of ELM steps
   EDIFF  = 0.1E-04   stopping-criterion for ELM
   LREAL  =      T    real-space projection
   NLSPLINE    = F    spline interpolate recip. space projectors
   LCOMPAT=      F    compatible to vasp.4.4
   GGA_COMPAT  = T    GGA compatible to vasp.4.4-vasp.4.6
   LMAXPAW     = -100 max onsite density
   LMAXMIX     =    2 max onsite mixed and CHGCAR
   VOSKOWN=      0    Vosko Wilk Nusair interpolation
   ROPT   =   -0.00025  -0.00025  -0.00025
 Ionic relaxation
   EDIFFG = -.2E-01   stopping-criterion for IOM
   NSW    =    500    number of steps for IOM
   NBLOCK =      1;   KBLOCK =    500    inner block; outer block
   IBRION =      2    ionic relax: 0-MD 1-quasi-New 2-CG
   NFREE  =      1    steps in history (QN), initial steepest desc. (CG)
   ISIF   =      2    stress and relaxation
   IWAVPR =     11    prediction:  0-non 1-charg 2-wave 3-comb
   ISYM   =      2    0-nonsym 1-usesym 2-fastsym
   LCORR  =      T    Harris-Foulkes like correction to forces

   POTIM  = 0.5000    time-step for ionic-motion
   TEIN   =    0.0    initial temperature
   TEBEG  =    0.0;   TEEND  =   0.0 temperature during run
   SMASS  =  -3.00    Nose mass-parameter (am)
   estimated Nose-frequenzy (Omega)   =  0.10E-29 period in steps =****** mass=  -0.231E-26a.u.
   SCALEE = 1.0000    scale energy and forces
   NPACO  =    256;   APACO  = 16.0  distance and # of slots for P.C.
   PSTRESS=    0.0 pullay stress

  Mass of Ions in am
   POMASS =  10.81 14.00 16.00
  Ionic Valenz
   ZVAL   =   3.00  5.00  6.00
  Atomic Wigner-Seitz radii
  virtual crystal weights
   VCA    =   1.00  1.00  1.00
   NELECT =     129.0000    total number of electrons
[...]
     32     -12.7024      1.00000
     33     -12.4718      1.00000
     34     -12.3103      1.00000
     35     -12.2163      1.00000
     36     -12.1340      1.00000
     37     -11.5325      1.00000
     38     -11.5005      1.00000
     39     -11.3382      1.00000
     40     -11.2618      1.00000
     41     -11.1756      1.00000
     42     -11.0657      1.00000
     43     -10.8543      1.00000
     44     -10.6425      1.00000
     45     -10.4584      1.00000
     46     -10.3862      1.00000
     47     -10.3512      1.00000
     48     -10.1493      1.00000
     49     -10.0780      1.00000
     50     -10.0065      1.00000
     51      -9.6963      1.00000
     52      -9.6750      1.00000
     53      -9.4903      1.00000
     54      -9.1676      1.00000
     55      -8.5381      1.00000
     56      -8.4715      1.00000
     57      -8.4035      1.00000
     58      -8.1659      1.00000
     59      -7.9343      1.00000
     60      -7.7938      1.00000
[...]
    130       2.8862      0.00000
    131       2.8533      0.00000
    132       2.9256      0.00000
    133       3.1762      0.00000
    134       3.2401      0.00000
    135       3.2979      0.00000
    136       3.3313      0.00000
    137       3.4166      0.00000
    138       3.4480      0.00000
    139       3.4597      0.00000
    140       3.5069      0.00000
    141       3.6119      0.00000
    142       3.6589      0.00000
    143       3.6063      0.00000
    144       3.6790      0.00000

[...]

 spin component 2

[...]

 k-point     6 :      -0.3750    0.3750    0.0000
  band No.  band energies     occupation
      1     -29.7826      1.00000
      2     -25.1158      1.00000
      3     -24.8013      1.00000
      4     -24.5773      1.00000
      5     -24.2515      1.00000
      6     -23.7269      1.00000
      7     -23.5672      1.00000
      8     -23.3259      1.00000
      9     -23.2495      1.00000
     10     -22.8323      1.00000
     11     -22.7322      1.00000
     12     -22.4421      1.00000
     13     -22.3665      1.00000
     14     -22.2038      1.00000
     15     -21.9367      1.00000
     16     -21.8904      1.00000
     17     -16.6065      1.00000
     18     -16.5479      1.00000
     19     -15.6694      1.00000
     20     -15.3890      1.00000
     21     -15.3223      1.00000
     22     -15.2301      1.00000
     23     -15.1537      1.00000
     24     -14.3545      1.00000
     25     -14.3156      1.00000
     26     -14.0625      1.00000
     27     -13.7303      1.00000
     28     -13.6069      1.00000
     29     -13.3381      1.00000
     30     -13.2744      1.00000
     31     -12.6803      1.00000
     32     -12.6572      1.00000
     33     -12.4896      1.00000
     34     -11.9142      1.00000
     35     -11.8405      1.00000
     36     -11.5579      1.00000
     37     -11.5243      1.00000
     38     -11.5191      1.00000
     39     -11.3896      1.00000
     40     -11.3232      1.00000
     41     -11.0471      1.00000
     42     -11.0285      1.00000
     43     -10.8470      1.00000
     44     -10.7857      1.00000
     45     -10.7305      1.00000
     46     -10.5538      1.00000
     47     -10.3102      1.00000
     48     -10.2048      1.00000
     49      -9.8738      1.00000
     50      -9.8286      1.00000
     51      -9.6446      1.00000
     52      -9.3707      1.00000
     53      -9.1558      1.00000
     54      -9.1073      1.00000
     55      -8.9894      1.00000
     56      -8.9604      1.00000
     57      -8.5818      1.00000
     58      -8.4229      1.00000
     59      -8.1703      1.00000
     60      -7.7815      1.00000
[...]
    130       2.7747      0.00000
    131       2.8721      0.00000
    132       2.8760      0.00000
    133       2.9058      0.00000
    134       3.0546      0.00000
    135       3.0566      0.00000
    136       3.0324      0.00000
    137       3.0757      0.00000
    138       3.1733      0.00000
    139       3.1527      0.00000
    140       3.2246      0.00000
    141       3.2413      0.00000
    142       3.2617      0.00000
    143       3.3422      0.00000
    144       3.3543      0.00000

 soft charge-density along one line, spin component           1
         0         1         2         3         4         5         6         7         8         9
 total charge-density along one line

 soft charge-density along one line, spin component           2
         0         1         2         3         4         5         6         7         8         9
 total charge-density along one line

------------------------ aborting loop because EDIFF is reached ----------------------------------------

 total charge

# of ion       s       p       d       tot
    1        0.740   1.379   0.000   2.119
    2        0.740   1.379   0.000   2.119
    3        0.742   1.385   0.000   2.127
    4        0.742   1.384   0.000   2.126
    5        0.742   1.388   0.000   2.131
    6        0.731   1.340   0.000   2.071
    7        0.742   1.388   0.000   2.131
    8        0.742   1.384   0.000   2.126
    9        0.740   1.379   0.000   2.119
   10        0.731   1.340   0.000   2.071
   11        0.731   1.340   0.000   2.071
   12        0.740   1.379   0.000   2.119
   13        0.742   1.385   0.000   2.127
   14        0.740   1.379   0.000   2.119
   15        0.743   1.389   0.000   2.131
   16        0.740   1.379   0.000   2.119
   17        1.238   2.827   0.000   4.066
   18        1.237   2.825   0.000   4.062
   19        1.237   2.826   0.000   4.063
   20        1.237   2.825   0.000   4.062
   21        1.237   2.833   0.000   4.070
   22        1.237   2.833   0.000   4.070
   23        1.237   2.826   0.000   4.063
   24        1.237   2.826   0.000   4.064
   25        1.237   2.833   0.000   4.070
   26        1.237   2.833   0.000   4.070
   27        1.237   2.825   0.000   4.062
   28        1.238   2.827   0.000   4.066
   29        1.237   2.833   0.000   4.070
   30        1.237   2.833   0.000   4.070
   31        1.238   2.827   0.000   4.066
   32        1.546   3.706   0.000   5.253
tot         31.934  68.136   0.000 100.070

 magnetization (x)

[...]

  FORCE on cell =-STRESS in cart. coord.  units (eV):
  Direction    XX          YY          ZZ          XY          YZ          ZX
  Alpha Z    29.96545    29.96545    29.96545
  Ewald   45960.03926 45960.03386-50381.07356     0.00000    -0.00000     0.00000
  Hartree 44732.58671 44732.58707-44223.31278     0.00012    -0.00000     0.00000
  E(xc)    -521.47112  -521.47120  -525.73836     0.01699     0.00003     0.00000
  Local  -92049.65282-92049.66006 92965.31253     0.00188     0.00002    -0.00003
  n-local  -249.00900  -249.00818  -250.96471    -0.06279    -0.00001     0.00000
  augment    22.84701    22.84697    27.29319     0.00002     0.00001    -0.00000
  Kinetic  2065.86990  2065.86519  2350.58738     0.72699     0.00007    -0.00001
  Fock        0.00000     0.00000     0.00000     0.00000     0.00000     0.00000
  Total      -8.83271    -8.83279    -7.93086    -0.00000    -0.00000    -0.00000
  in kB      -4.60851    -4.60855    -4.13797    -0.00000    -0.00000    -0.00000

 VOLUME and BASIS-vectors are now :
  energy-cutoff  :      550.00
  volume of cell :     3070.74
      direct lattice vectors                 reciprocal lattice vectors
     5.024366704 -8.702497373  0.000000000     0.099515029 -0.057454772  0.000000000
     5.024366704  8.702497373  0.000000000     0.099515029  0.057454772  0.000000000
     0.000000000  0.000000000 35.114664386     0.000000000  0.000000000  0.028478131

  length of vectors
    10.048767154 10.048767154 35.114664386     0.114909929  0.114909929  0.028478131

 FORCES acting on ions
    electron-ion (+dipol)            ewald-force                    non-local-force                 convergence-correction
   -.426E+00 0.215E+01 0.296E-06   -.461E+00 -.174E+01 -.153E-20   0.442E+00 -.284E+00 0.000E+00   0.581E-05 0.671E-07 0.321E-10
   -.207E+01 -.705E+00 -.885E-05   0.128E+01 0.127E+01 -.314E-18   0.467E+00 -.241E+00 0.000E+00   0.284E-05 -.506E-05 -.638E-10
   -.583E+00 -.337E+00 -.731E-05   0.637E+00 0.369E+00 -.180E-18   0.102E-01 0.591E-02 0.132E-22   -.196E-05 -.113E-05 -.287E-10
   0.388E-04 0.672E+00 0.789E-05   -.222E-14 -.735E+00 0.191E-18   0.434E-18 -.118E-01 -.662E-23   0.356E-11 0.226E-05 0.575E-10
   0.254E+01 0.147E+01 -.946E-05   -.363E+01 -.209E+01 0.923E-19   0.430E+00 0.248E+00 0.000E+00   0.695E-05 0.401E-05 -.572E-10
   0.369E+01 -.213E+01 -.570E-04   -.846E+01 0.489E+01 -.283E-18   0.370E+01 -.214E+01 0.000E+00   -.332E-05 0.192E-05 -.324E-10
   0.279E-04 -.294E+01 0.494E-05   0.696E-14 0.419E+01 -.206E-18   0.173E-17 -.496E+00 0.000E+00   0.141E-10 -.803E-05 0.119E-09
   0.583E+00 -.337E+00 -.385E-05   -.637E+00 0.369E+00 0.102E-18   -.102E-01 0.591E-02 0.000E+00   0.196E-05 -.113E-05 -.281E-10
   0.165E+01 -.144E+01 -.181E-05   -.174E+01 0.474E+00 0.180E-18   -.253E-01 0.525E+00 0.000E+00   0.296E-05 0.499E-05 0.276E-10
   0.723E-04 0.426E+01 0.652E-04   -.191E-11 -.977E+01 -.519E-19   0.000E+00 0.427E+01 -.579E-23   0.183E-10 -.384E-05 0.658E-10
   -.369E+01 -.213E+01 -.968E-05   0.846E+01 0.489E+01 -.761E-19   -.370E+01 -.214E+01 -.662E-23   0.332E-05 0.192E-05 -.307E-10
   0.207E+01 -.705E+00 -.181E-06   -.128E+01 0.127E+01 0.308E-18   -.467E+00 -.241E+00 0.000E+00   -.284E-05 -.506E-05 -.556E-10
   0.483E-04 -.426E-03 0.639E-06   0.130E-14 0.787E-03 0.256E-18   0.453E-18 -.108E-18 0.000E+00   -.452E-12 0.479E-10 0.928E-12
   -.165E+01 -.144E+01 0.110E-04   0.174E+01 0.474E+00 0.303E-19   0.253E-01 0.525E+00 0.000E+00   -.296E-05 0.499E-05 0.362E-10
   -.254E+01 0.147E+01 0.818E-05   0.363E+01 -.209E+01 0.202E-18   -.430E+00 0.248E+00 0.000E+00   -.695E-05 0.401E-05 -.599E-10
   0.426E+00 0.215E+01 0.234E-05   0.461E+00 -.174E+01 0.433E-18   -.442E+00 -.284E+00 0.000E+00   -.581E-05 0.671E-07 0.274E-10
   0.166E+01 -.961E+00 -.575E-05   -.237E+01 0.137E+01 -.129E-18   0.258E+00 -.149E+00 0.000E+00   0.294E-05 -.170E-05 -.603E-10
   -.888E+00 -.512E+00 -.223E-04   0.109E+01 0.631E+00 -.453E-18   -.200E+00 -.116E+00 0.000E+00   -.375E-05 -.217E-05 -.180E-09
   -.233E+01 0.134E+01 -.547E-05   0.326E+01 -.188E+01 0.136E-18   -.480E+00 0.277E+00 0.000E+00   -.593E-05 0.342E-05 -.581E-10
   -.162E-02 0.102E+01 0.168E-04   -.329E-13 -.126E+01 0.350E-18   0.000E+00 0.231E+00 0.000E+00   0.486E-10 0.433E-05 0.306E-09
   0.117E+02 0.261E+01 0.191E-05   -.152E+02 -.363E+01 -.458E-18   0.218E+01 0.101E+01 0.000E+00   0.720E-06 0.163E-05 -.163E-09
   0.356E+01 -.114E+02 -.189E-04   -.448E+01 0.150E+02 -.732E-18   0.213E+00 -.240E+01 0.331E-22   -.105E-05 -.144E-05 0.933E-10
   -.162E-02 -.269E+01 0.263E-04   0.178E-13 0.377E+01 -.282E-18   0.000E+00 -.554E+00 0.212E-21   0.489E-10 -.684E-05 0.149E-09
   0.233E+01 0.134E+01 -.205E-04   -.326E+01 -.188E+01 0.731E-19   0.480E+00 0.277E+00 0.212E-21   0.593E-05 0.342E-05 -.862E-10
   0.809E+01 0.879E+01 0.997E-05   -.108E+02 -.114E+02 -.161E-18   0.197E+01 0.138E+01 0.000E+00   0.177E-05 -.192E-06 0.677E-10
   -.357E+01 -.114E+02 0.158E-04   0.448E+01 0.150E+02 -.178E-18   -.213E+00 -.240E+01 0.000E+00   0.105E-05 -.144E-05 0.696E-10
   0.885E+00 -.512E+00 0.567E-05   -.109E+01 0.631E+00 0.365E-18   0.200E+00 -.116E+00 -.265E-22   0.375E-05 -.217E-05 -.125E-09
   -.162E-02 0.192E+01 0.267E-04   0.344E-11 -.273E+01 0.243E-18   0.260E-17 0.298E+00 0.000E+00   0.180E-10 0.339E-05 0.150E-09
   -.809E+01 0.879E+01 -.906E-05   0.108E+02 -.114E+02 0.211E-19   -.197E+01 0.138E+01 0.265E-22   -.177E-05 -.192E-06 0.986E-10
   -.117E+02 0.261E+01 0.138E-06   0.152E+02 -.363E+01 0.255E-18   -.218E+01 0.101E+01 0.106E-21   -.720E-06 0.163E-05 -.166E-09
   -.167E+01 -.961E+00 -.210E-04   0.237E+01 0.137E+01 0.721E-18   -.258E+00 -.149E+00 -.106E-21   -.294E-05 -.170E-05 -.848E-10
   -.280E-02 -.108E-02 0.131E-07   0.249E-13 -.871E-03 -.454E-18   0.207E-18 0.474E-19 0.000E+00   0.625E-10 -.346E-10 0.584E-11
   -.258E-01 -.162E-01 -.181E-04   -.533E-13 0.787E-13 0.000E+00   0.333E-15 0.136E-14 0.451E-21   -.477E-10 -.570E-09 0.269E-10

 POSITION                                       TOTAL-FORCE (eV/Angst)
      1.25228     -0.72096     17.55733        -0.006047     -0.007720      0.000000
      2.50660      1.45160     17.55733         0.003662      0.009097      0.000000
      3.76765      3.62568     17.55733        -0.013103     -0.007565      0.000000
      5.02437      5.80239     17.55733         0.000000      0.015131      0.000000
      2.50749     -2.90354     17.55733         0.000255      0.000147     -0.000000
      3.73169     -0.70408     17.55733        -0.013944      0.008051      0.000000
      5.02437      1.45584     17.55733         0.000000     -0.000294      0.000000
      6.28109      3.62568     17.55733         0.013103     -0.007565     -0.000000
      3.77005     -5.08189     17.55733        -0.009709     -0.001377     -0.000000
      5.02437     -2.94309     17.55733         0.000000     -0.016101     -0.000000
      6.31706     -0.70408     17.55733         0.013944      0.008051      0.000000
      7.54215      1.45160     17.55733        -0.003662      0.009097      0.000000
      5.02437     -7.25208     17.55733         0.000000     -0.000000      0.000000
      6.27869     -5.08189     17.55733         0.009709     -0.001377      0.000000
      7.54125     -2.90354     17.55733        -0.000255      0.000147      0.000000
      8.79646     -0.72096     17.55733         0.006047     -0.007720      0.000000
      1.25721      0.72457     17.55733         0.003684     -0.002127     -0.000000
      2.51128      2.90031     17.55733         0.010232      0.005908      0.000000
      3.76596      5.07780     17.55733         0.004985     -0.002878      0.000000
      5.02437      7.25313     17.55733         0.000000     -0.011815     -0.000000
      2.52366     -1.45148     17.55733        -0.007019     -0.000700      0.000000
      3.77494      0.71580     17.55733        -0.002903      0.006428      0.000000
      5.02437      2.89815     17.55733        -0.000000      0.005756      0.000000
      6.28278      5.07780     17.55733        -0.004985     -0.002878      0.000000
      3.77309     -3.61557     17.55733        -0.004116     -0.005728      0.000000
      6.27380      0.71580     17.55733         0.002903      0.006428      0.000000
      7.53746      2.90031     17.55733        -0.010232      0.005908     -0.000000
      5.02437     -5.80038     17.55733         0.000000      0.004254      0.000000
      6.27565     -3.61557     17.55733         0.004116     -0.005728      0.000000
      7.52508     -1.45148     17.55733         0.007019     -0.000700     -0.000000
      8.79154      0.72457     17.55733        -0.003684     -0.002127      0.000000
      5.02437     -1.45042     17.55733         0.000000     -0.000000      0.000000
    total drift:                               -0.025773     -0.016209     -0.000018

  FREE ENERGIE OF THE ION-ELECTRON SYSTEM (eV)
  free  energy   TOTEN  =      -309.03680087 eV

  energy  without entropy=     -309.03638817  energy(sigma->0) =     -309.03659452

 reached required accuracy - stopping structural energy minimisation
 writing wavefunctions

 total charge

[...]

 magnetization (x)

# of ion       s       p       d       tot
    1       -0.000  -0.000   0.000  -0.000
    2       -0.000  -0.000   0.000  -0.000
    3       -0.000  -0.000   0.000  -0.000
    4       -0.000  -0.000   0.000  -0.000
    5       -0.000  -0.000   0.000  -0.000
    6       -0.000  -0.000   0.000  -0.000
    7       -0.000  -0.000   0.000  -0.000
    8       -0.000  -0.000   0.000  -0.000
    9       -0.000  -0.000   0.000  -0.000
   10       -0.000  -0.000   0.000  -0.000
   11       -0.000  -0.000   0.000  -0.000
   12       -0.000  -0.000   0.000  -0.000
   13       -0.000  -0.000   0.000  -0.000
   14       -0.000  -0.000   0.000  -0.000
   15       -0.000  -0.000   0.000  -0.000
   16       -0.000  -0.000   0.000  -0.000
   17        0.000  -0.000   0.000   0.000
   18        0.000  -0.000   0.000   0.000
   19        0.000  -0.000   0.000   0.000
   20        0.000  -0.000   0.000   0.000
   21        0.000  -0.000   0.000   0.000
   22        0.000  -0.000   0.000   0.000
   23        0.000  -0.000   0.000   0.000
   24        0.000  -0.000   0.000   0.000
   25        0.000  -0.000   0.000   0.000
   26        0.000  -0.000   0.000   0.000
   27        0.000  -0.000   0.000   0.000
   28        0.000  -0.000   0.000   0.000
   29        0.000  -0.000   0.000   0.000
   30        0.000  -0.000   0.000   0.000
   31        0.000  -0.000   0.000   0.000
   32        0.000  -0.000   0.000   0.000
tot          0.000  -0.000   0.000   0.000