 vasp.5.4.4.18Apr17-6-g9f103f2a35 (build May 01 2020 14:57:12) complex

 executed on             LinuxIFC date 2021.04.16  00:39:49

 INCAR:
 POTCAR:    PAW_PBE B 06Sep2000
 POTCAR:    PAW_PBE C 08Apr2002
 POTCAR:    PAW_PBE F 08Apr2002
 POTCAR:    PAW_PBE N 08Apr2002
 POTCAR:    PAW_PBE O 08Apr2002

 POTCAR:    PAW_PBE B 06Sep2000
   VRHFIN =B: s2p1

   TITEL  = PAW_PBE B 06Sep2000
   POMASS =   10.811; ZVAL   =    3.000    mass and valenz
   ENMAX  =  318.614; ENMIN  =  238.960 eV

 POTCAR:    PAW_PBE C 08Apr2002
   VRHFIN =C: s2p2

   TITEL  = PAW_PBE C 08Apr2002
   POMASS =   12.011; ZVAL   =    4.000    mass and valenz
   ENMAX  =  400.000; ENMIN  =  300.000 eV

 POTCAR:    PAW_PBE F 08Apr2002
   VRHFIN =F: s2p5

[...]

 POTCAR:    PAW_PBE N 08Apr2002
   VRHFIN =N: s2p3

[...]

 POTCAR:    PAW_PBE O 08Apr2002
   VRHFIN =O: s2p4

   TITEL  = PAW_PBE O 08Apr2002
   POMASS =   16.000; ZVAL   =    6.000    mass and valenz
   ENMAX  =  400.000; ENMIN  =  300.000 eV

 Optimization of the real space projectors (new method)

 maximal supplied QI-value         = 22.11
 optimisation between [QCUT,QGAM] = [ 11.94, 23.88] = [ 39.92,159.67] Ry
 Optimized for a Real-space Cutoff    1.18 Angstroem

   l    n(q)    QCUT    max X(q) W(low)/X(q) W(high)/X(q)  e(spline)
   0      8    11.939    53.033    0.11E-03    0.34E-03    0.60E-07
   0      8    11.939    34.740    0.11E-03    0.34E-03    0.59E-07
   1      8    11.939    30.949    0.22E-03    0.20E-03    0.17E-06
   1      8    11.939    19.518    0.20E-03    0.18E-03    0.16E-06
 Optimization of the real space projectors (new method)

[...]

   l    n(q)    QCUT    max X(q) W(low)/X(q) W(high)/X(q)  e(spline)
   0     10    11.813    79.467    0.48E-04    0.30E-04    0.67E-06
   0     10    11.813    66.151    0.47E-04    0.30E-04    0.67E-06
   1     10    11.813    20.169    0.11E-03    0.17E-03    0.11E-05
   1     10    11.813    14.454    0.11E-03    0.17E-03    0.11E-05
 Optimization of the real space projectors (new method)

 maximal supplied QI-value         = 24.76
 optimisation between [QCUT,QGAM] = [ 11.88, 24.01] = [ 39.54,161.47] Ry
 Optimized for a Real-space Cutoff    1.18 Angstroem

   l    n(q)    QCUT    max X(q) W(low)/X(q) W(high)/X(q)  e(spline)
   0      8    11.883    20.381    0.86E-04    0.11E-03    0.31E-06
   0      8    11.883    15.268    0.94E-04    0.12E-03    0.33E-06
   1      8    11.883     5.964    0.19E-03    0.18E-04    0.33E-06
   1      8    11.883     5.382    0.17E-03    0.20E-04    0.29E-06
  PAW_PBE B 06Sep2000                   :
  PAW_PBE C 08Apr2002                   :
  PAW_PBE F 08Apr2002                   :
  PAW_PBE N 08Apr2002                   :
  PAW_PBE O 08Apr2002                   :

 POSCAR: B C F N O
  positions in direct lattice
  velocities in cartesian coordinates

 METAGGA = SCAN     LMAXTAU =  6    LMIXTAU =  F

 ion  position               nearest neighbor table
   1  0.111  0.056  0.493-  65 1.45  66 1.45  60 1.45
   2  0.111  0.222  0.493-  60 1.45  61 1.45  67 1.45
   3  0.111  0.389  0.493-  62 1.44  61 1.44  68 1.47
   4  0.111  0.556  0.493-  63 1.44  62 1.45  69 1.47
   5  0.111  0.722  0.493-  64 1.45  63 1.45  70 1.45
   6  0.111  0.889  0.493-  71 1.45  65 1.45  64 1.45
   7  0.278  0.056  0.493-  72 1.45  71 1.45  66 1.45
   8  0.278  0.222  0.492-  66 1.45  73 1.45  67 1.45
   9  0.278  0.389  0.492-  67 1.44  68 1.45  74 1.45
  10  0.274  0.554  0.492-  69 1.41  68 1.42  95 1.50
  11  0.278  0.723  0.493-  70 1.44  69 1.45  75 1.45
  12  0.278  0.889  0.493-  71 1.45  76 1.45  70 1.45
  13  0.445  0.056  0.493-  77 1.45  72 1.45  76 1.45
  14  0.445  0.223  0.492-  78 1.45  72 1.45  73 1.46
  15  0.445  0.389  0.491-  73 1.44  79 1.44  74 1.47
  16  0.446  0.554  0.491-  80 1.42  74 1.42  95 1.49
  17  0.446  0.726  0.492-  75 1.41  81 1.42  95 1.50
  18  0.445  0.890  0.493-  76 1.44  82 1.45  75 1.47
  19  0.611  0.056  0.493-  83 1.45  77 1.45  82 1.46
  20  0.611  0.223  0.492-  84 1.45  77 1.45  78 1.45
  21  0.611  0.389  0.491-  78 1.45  85 1.45  79 1.46
  22  0.611  0.556  0.491-  86 1.44  79 1.44  80 1.47
  23  0.612  0.723  0.491-  87 1.44  81 1.45  80 1.45
  24  0.611  0.890  0.492-  88 1.44  82 1.44  81 1.47
  25  0.778  0.056  0.493-  83 1.45  89 1.45  88 1.45
  26  0.778  0.223  0.493-  84 1.45  83 1.45  90 1.45
  27  0.778  0.389  0.492-  84 1.45  91 1.45  85 1.45
  28  0.778  0.556  0.492-  85 1.45  92 1.45  86 1.46
  29  0.778  0.722  0.492-  93 1.45  86 1.45  87 1.45
  30  0.778  0.889  0.492-  94 1.45  88 1.45  87 1.45
  31  0.944  0.056  0.493-  89 1.45  94 1.45  60 1.45
  32  0.944  0.223  0.493-  90 1.45  89 1.45  61 1.46
  33  0.944  0.389  0.493-  90 1.45  91 1.45  62 1.46
  34  0.945  0.556  0.493-  91 1.45  92 1.45  63 1.45
  35  0.945  0.722  0.493-  92 1.45  64 1.45  93 1.45
  36  0.944  0.889  0.493-  65 1.45  93 1.45  94 1.45
  37  0.522  0.396  0.610-  45 1.35  46 1.35  39 1.55  38 1.56
  38  0.535  0.504  0.615-  47 1.35  48 1.36  40 1.55  37 1.56
  39  0.613  0.387  0.626-  54 1.35  53 1.35  43 1.55  37 1.55
  40  0.434  0.507  0.610-  50 1.35  49 1.36  41 1.55  38 1.55
  41  0.450  0.616  0.603-  51 1.35  52 1.37  42 1.54  40 1.55
  42  0.353  0.625  0.608-  55 1.37  56 1.37  41 1.54  44 1.56
  43  0.619  0.293  0.611-  59 1.34  58 1.34  57 1.34  39 1.55
  44  0.362  0.726  0.592-  97 1.24  96 1.25  42 1.56
  45  0.435  0.326  0.628-  37 1.35
  46  0.514  0.373  0.572-  37 1.35
  47  0.573  0.539  0.650-  38 1.35
  48  0.604  0.567  0.588-  38 1.36
  49  0.385  0.448  0.579-  40 1.36
  50  0.375  0.465  0.641-  40 1.35
  51  0.524  0.679  0.628-  41 1.35
  52  0.485  0.645  0.567-  41 1.37
  53  0.702  0.472  0.618-  39 1.35
  54  0.603  0.378  0.665-  39 1.35
  55  0.275  0.539  0.591-  42 1.37
  56  0.331  0.619  0.646-  42 1.37
  57  0.526  0.209  0.612-  43 1.34
  58  0.654  0.310  0.576-  43 1.34
  59  0.682  0.278  0.633-  43 1.34
  60  0.056  0.112  0.493-   2 1.45   1 1.45  31 1.45
[...]
  83  0.722  0.111  0.493-  19 1.45  25 1.45  26 1.45
  84  0.722  0.278  0.492-  27 1.45  20 1.45  26 1.45
  85  0.722  0.445  0.492-  21 1.45  28 1.45  27 1.45
  86  0.722  0.611  0.492-  22 1.44  29 1.45  28 1.46
  87  0.722  0.778  0.492-  23 1.44  29 1.45  30 1.45
  88  0.722  0.945  0.493-  24 1.44  30 1.45  25 1.45
  89  0.889  0.111  0.493-  32 1.45  25 1.45  31 1.45
  90  0.889  0.278  0.493-  33 1.45  32 1.45  26 1.45
  91  0.889  0.445  0.493-  33 1.45  34 1.45  27 1.45
  92  0.889  0.611  0.493-  28 1.45  35 1.45  34 1.45
  93  0.889  0.778  0.493-  29 1.45  36 1.45  35 1.45
  94  0.889  0.945  0.493-  30 1.45  31 1.45  36 1.45
  95  0.389  0.612  0.492-  16 1.49  10 1.50  17 1.50
  96  0.447  0.804  0.597-  44 1.25
  97  0.283  0.715  0.576-  44 1.24

  LATTYP: Found a hexagonal cell.
 ALAT       =    15.0731507304
 C/A-ratio  =     2.3296167479

  Lattice vectors:

 A1 = (   7.5365500567, -13.0537460594,   0.0000000000)
 A2 = (   7.5365500567,  13.0537460594,   0.0000000000)
 A3 = (   0.0000000000,   0.0000000000,  35.1146643856)

Analysis of symmetry for initial positions (statically):
 Subroutine PRICEL returns:
 Original cell was already a primitive cell.

 Routine SETGRP: Setting up the symmetry group for a
 hexagonal supercell.

 Subroutine GETGRP returns: Found  1 space group operations
 (whereof  1 operations were pure point group operations)
 out of a pool of 24 trial point group operations.

The static configuration has the point symmetry C_1 .

Analysis of symmetry for dynamics (positions and initial velocities):
 Subroutine PRICEL returns:
 Original cell was already a primitive cell.

[...]

The dynamic configuration has the point symmetry C_1 .

Analysis of constrained symmetry for selective dynamics:
 Subroutine PRICEL returns:
 Original cell was already a primitive cell.

[...]

The constrained configuration has the point symmetry C_1 .

Analysis of structural, dynamic, and magnetic symmetry:
 Subroutine PRICEL returns:
 Original cell was already a primitive cell.

 Routine SETGRP: Setting up the symmetry group for a
 hexagonal supercell.

 Subroutine GETGRP returns: Found  1 space group operations
 (whereof  1 operations were pure point group operations)
 out of a pool of 24 trial point group operations.

The magnetic configuration has the point symmetry C_1 .

 Subroutine INISYM returns: Found  1 space group operations
 (whereof  1 operations are pure point group operations),
 and found     1 'primitive' translations

 KPOINTS: K-Point Grid

Automatic generation of k-mesh.
Space group operators:
 irot       det(A)        alpha          n_x          n_y          n_z        tau_x        tau_y        tau_z
    1     1.000000     0.000000     1.000000     0.000000     0.000000     0.000000     0.000000     0.000000

 Subroutine IBZKPT returns following result:

 Found      5 irreducible k-points:

 Following reciprocal coordinates:
            Coordinates               Weight
  0.000000  0.000000  0.000000      1.000000
  0.333333  0.000000  0.000000      2.000000
  0.000000  0.333333  0.000000      2.000000
  0.333333  0.333333  0.000000      2.000000
 -0.333333  0.333333  0.000000      2.000000

 Following cartesian coordinates:
            Coordinates               Weight
  0.000000  0.000000  0.000000      1.000000
  0.022114 -0.012768  0.000000      2.000000
  0.022114  0.012768  0.000000      2.000000
  0.044229  0.000000  0.000000      2.000000
  0.000000  0.025535  0.000000      2.000000

 SYSTEM =  SiC
 POSCAR =  B C F N O

 Startparameter for this run:
   NWRITE =      2    write-flag & timer
   PREC   = accura    normal or accurate (medium, high low for compatibility)
   ISTART =      1    job   : 0-new  1-cont  2-samecut
   ICHARG =      0    charge: 1-file 2-atom 10-const
   ISPIN  =      2    spin polarized calculation?
   LNONCOLLINEAR =      F non collinear calculations
   LSORBIT =      F    spin-orbit coupling
   INIWAV =      1    electr: 0-lowe 1-rand  2-diag
   LASPH  =      T    aspherical Exc in radial PAW
   METAGGA=      F    non-selfconsistent MetaGGA calc.

 Electronic Relaxation 1
   ENCUT  =  550.0 eV  40.42 Ry    6.36 a.u.  28.82 28.82 67.15*2*pi/ulx,y,z
   ENINI  =  550.0     initial cutoff
   ENAUG  =  644.9 eV  augmentation charge cutoff
   NELM   =    100;   NELMIN=  2; NELMDL=  0     # of ELM steps
   EDIFF  = 0.1E-04   stopping-criterion for ELM
   LREAL  =      T    real-space projection
   NLSPLINE    = F    spline interpolate recip. space projectors
   LCOMPAT=      F    compatible to vasp.4.4
   GGA_COMPAT  = T    GGA compatible to vasp.4.4-vasp.4.6
   LMAXPAW     = -100 max onsite density
   LMAXMIX     =    2 max onsite mixed and CHGCAR
   VOSKOWN=      0    Vosko Wilk Nusair interpolation
   ROPT   =   -0.00025  -0.00025  -0.00025  -0.00025
   ROPT   =   -0.00025
 Ionic relaxation
   EDIFFG = -.2E-01   stopping-criterion for IOM
   NSW    =    500    number of steps for IOM
   NBLOCK =      1;   KBLOCK =    500    inner block; outer block
   IBRION =      2    ionic relax: 0-MD 1-quasi-New 2-CG
   NFREE  =      1    steps in history (QN), initial steepest desc. (CG)
   ISIF   =      2    stress and relaxation
   IWAVPR =     11    prediction:  0-non 1-charg 2-wave 3-comb
[...]
   -.470E+02 0.394E+01 0.124E+03   0.472E+02 -.382E+01 -.123E+03   -.181E+00 -.298E-02 0.155E-02   0.976E-03 -.529E-03 0.602E-03
   -.455E-01 0.417E+01 0.101E+03   -.323E-01 -.414E+01 -.100E+03   -.407E-03 -.195E-01 0.645E-02   0.806E-03 -.475E-04 0.164E-02
   0.135E+02 0.107E+02 0.109E+03   -.137E+02 -.105E+02 -.108E+03   0.109E+00 -.735E-01 0.618E-02   0.583E-03 0.516E-03 0.125E-02
   0.399E+01 0.123E+02 0.124E+03   -.412E+01 -.121E+02 -.123E+03   0.171E+00 -.101E+00 0.106E-01   -.224E-03 0.191E-03 0.142E-02
   -.195E+02 0.438E+01 0.128E+03   0.197E+02 -.440E+01 -.127E+03   0.884E-01 -.467E-01 0.136E-01   -.889E-03 0.226E-04 0.143E-02
   -.309E+02 -.497E+00 0.117E+03   0.311E+02 0.255E+00 -.116E+03   -.362E-02 0.233E-01 0.962E-02   -.325E-03 -.449E-03 0.113E-02
   -.211E+02 0.226E+00 0.105E+03   0.212E+02 -.381E+00 -.104E+03   -.335E-01 0.189E-01 0.847E-02   0.514E-03 -.767E-03 0.145E-02
   0.308E+02 0.521E+02 -.399E+03   -.217E+02 -.520E+02 0.405E+03   -.903E+01 0.172E+00 -.443E+01   -.337E-03 -.991E-03 -.697E-03
   -.338E+02 0.100E+02 -.414E+03   0.239E+02 -.824E+01 0.413E+03   0.985E+01 -.108E+01 0.202E+01   -.184E-02 -.205E-02 -.499E-03
   -.213E+02 0.119E+03 -.447E+03   0.138E+02 -.119E+03 0.441E+03   0.741E+01 -.451E-01 0.645E+01   -.252E-03 -.450E-03 -.168E-03
   0.285E+02 -.424E+02 -.405E+03   -.177E+02 0.434E+02 0.405E+03   -.103E+02 -.806E-01 0.296E+00   -.169E-02 -.796E-03 -.105E-02
   -.383E+02 -.101E+03 -.389E+03   0.286E+02 0.106E+03 0.393E+03   0.102E+02 -.318E+01 -.279E+01   -.101E-02 -.672E-03 0.480E-03
   -.824E+01 -.190E+03 -.389E+03   0.199E+02 0.196E+03 0.384E+03   -.109E+02 -.358E+01 0.667E+01   -.132E-02 -.831E-03 0.442E-03
   0.197E+02 0.164E+03 -.400E+03   -.161E+02 -.156E+03 0.403E+03   -.380E+01 -.747E+01 -.297E+01   0.122E-02 0.118E-02 0.303E-03
   -.357E+02 -.179E+03 -.355E+03   0.362E+02 0.180E+03 0.357E+03   0.513E+00 0.705E+00 -.255E+00   -.382E-02 0.766E-03 0.291E-02
   0.696E+03 -.137E+01 -.985E+03   -.748E+03 0.113E+02 0.101E+04   0.510E+02 -.956E+01 -.259E+02   -.404E-02 -.780E-02 -.472E-02
   0.219E+03 0.132E+03 -.784E+01   -.230E+03 -.139E+03 -.461E+02   0.107E+02 0.760E+01 0.559E+02   -.259E-02 -.450E-02 0.547E-03
   -.391E+03 0.482E+01 -.135E+04   0.416E+03 -.466E+01 0.141E+04   -.242E+02 0.110E+01 -.525E+02   -.101E-01 -.155E-01 -.651E-02
   -.611E+03 0.933E+02 -.271E+03   0.654E+03 -.958E+02 0.234E+03   -.425E+02 0.345E+01 0.383E+02   -.769E-02 -.121E-02 -.535E-02
   0.513E+03 -.438E+02 -.164E+03   -.548E+03 0.409E+02 0.122E+03   0.348E+02 0.416E+01 0.444E+02   -.390E-02 -.534E-02 -.651E-02
   0.486E+03 -.148E+03 -.126E+04   -.519E+03 0.160E+03 0.131E+04   0.329E+02 -.960E+01 -.463E+02   -.167E-01 -.599E-02 -.378E-02
   -.615E+03 -.115E+03 -.109E+04   0.661E+03 0.114E+03 0.112E+04   -.443E+02 0.365E+01 -.355E+02   -.104E-01 -.353E-02 0.358E-02
   -.341E+03 -.955E+02 -.535E+02   0.363E+03 0.949E+02 0.772E+01   -.211E+02 0.291E+01 0.495E+02   -.133E-02 -.137E-01 0.579E-02
   -.696E+03 0.255E+03 -.673E+03   0.753E+03 -.257E+03 0.662E+03   -.563E+02 0.266E+01 0.121E+02   -.989E-02 -.697E-02 -.477E-02
   -.964E+01 0.180E+03 -.145E+04   0.485E+01 -.179E+03 0.151E+04   0.488E+01 -.545E+00 -.580E+02   0.730E-02 -.197E-02 -.353E-02
   0.587E+03 -.273E+03 -.454E+03   -.634E+03 0.275E+03 0.435E+03   0.474E+02 0.730E+00 0.224E+02   -.760E-02 -.881E-02 -.106E-01
   0.140E+03 -.372E+03 -.131E+04   -.147E+03 0.383E+03 0.137E+04   0.838E+01 -.937E+01 -.510E+02   -.109E-01 -.455E-02 -.312E-02
   0.640E+03 0.253E+03 -.703E+03   -.701E+03 -.250E+03 0.705E+03   0.589E+02 -.350E+01 -.908E+00   -.342E-02 0.166E-02 0.420E-02
   -.129E+03 0.401E+03 -.112E+03   0.146E+03 -.413E+03 0.576E+02   -.170E+02 0.119E+02 0.555E+02   -.331E-02 -.101E-02 0.611E-02
   -.116E+03 0.647E+03 -.102E+04   0.131E+03 -.694E+03 0.105E+04   -.157E+02 0.460E+02 -.339E+02   -.382E-02 -.201E-02 0.559E-02
   0.431E+02 -.350E+00 0.176E+03   -.435E+02 0.966E-01 -.175E+03   0.164E+00 0.109E+00 -.622E-01   0.121E-02 0.142E-02 0.472E-02
[...]
   -.173E+02 0.820E+02 0.283E+03   0.171E+02 -.820E+02 -.282E+03   0.143E-01 0.519E-02 0.671E-01   0.275E-02 0.125E-02 -.169E-02
   -.705E+02 0.600E+02 0.326E+03   0.706E+02 -.604E+02 -.325E+03   -.674E-01 0.135E+00 -.389E-01   0.296E-03 0.187E-02 -.153E-02
   -.109E+03 0.331E+02 0.309E+03   0.110E+03 -.338E+02 -.308E+03   -.408E+00 0.373E+00 -.123E-01   -.157E-02 -.140E-02 0.683E-03
   -.114E+03 0.906E+01 0.258E+03   0.115E+03 -.942E+01 -.257E+03   -.761E+00 0.419E+00 -.160E-01   0.172E-02 -.211E-02 -.193E-02
   -.714E+02 0.728E+01 0.208E+03   0.718E+02 -.702E+01 -.207E+03   -.491E+00 0.137E+00 -.380E-01   0.245E-02 0.115E-02 0.187E-02
   -.359E+01 0.171E+02 0.173E+03   0.339E+01 -.170E+02 -.172E+03   -.301E-02 0.433E-01 -.343E-01   0.224E-02 0.274E-02 0.360E-02
   0.488E+01 0.359E+02 0.197E+03   -.515E+01 -.357E+02 -.196E+03   0.123E+00 -.198E-01 -.487E-01   0.394E-02 0.110E-02 0.322E-02
   -.304E+02 0.350E+02 0.226E+03   0.305E+02 -.349E+02 -.225E+03   0.471E-01 -.103E+00 -.767E-01   0.249E-02 -.136E-02 0.288E-02
   -.654E+02 0.173E+02 0.222E+03   0.657E+02 -.176E+02 -.221E+03   -.708E-01 -.228E-02 -.787E-01   0.301E-03 -.181E-02 0.220E-02
   -.687E+02 0.661E+01 0.198E+03   0.692E+02 -.701E+01 -.197E+03   -.194E+00 0.113E+00 -.719E-01   -.621E-03 -.339E-02 0.243E-02
   -.399E+02 0.551E+01 0.175E+03   0.401E+02 -.565E+01 -.174E+03   -.177E+00 0.113E+00 -.669E-01   0.777E-03 0.517E-03 0.447E-02
   0.143E+02 -.670E+02 0.490E+03   -.139E+02 0.681E+02 -.485E+03   -.779E-01 -.233E+00 -.149E+00   0.761E-02 0.343E-02 0.315E-02
   -.459E+03 -.238E+03 -.604E+03   0.511E+03 0.237E+03 0.615E+03   -.497E+02 0.335E+01 -.805E+01   0.129E-01 -.501E-02 0.694E-02
   0.148E+03 -.474E+03 -.372E+03   -.176E+03 0.513E+03 0.353E+03   0.277E+02 -.364E+02 0.222E+02   -.290E-02 -.523E-02 0.219E-01
   0.260E+00 -.400E+01 0.712E+01   -.114E-11 0.341E-12 0.909E-12   -.617E+00 0.372E+01 -.724E+01   -.554E-01 -.671E-01 0.103E+00

 POSITION                                       TOTAL-FORCE (eV/Angst)
      1.25855     -0.72284     17.30292         0.000176      0.002244     -0.000372
      2.51373      1.45387     17.29898        -0.006027     -0.000381      0.003998
      3.76547      3.63334     17.30130         0.007383      0.004534     -0.000307
      5.02151      5.80639     17.30190         0.004438     -0.006810     -0.001969
      6.28269      7.97922     17.30562         0.004255     -0.003039     -0.002431
      7.53868     10.15467     17.30658        -0.000134      0.000178     -0.004181
      2.51484     -2.89877     17.29710         0.002181     -0.001993      0.004274
      3.77097     -0.72347     17.28012        -0.005404     -0.005370      0.002434
      5.02152      1.45100     17.26819         0.009684      0.002955      0.004240
      6.24433      3.65517     17.27482         0.002318     -0.001382     -0.003406
      7.53931      5.81143     17.31232         0.000649     -0.005123      0.000150
      8.79489      7.97947     17.30395         0.004059     -0.007269     -0.000693
      3.77164     -5.07399     17.29622        -0.005513     -0.005092      0.006498
      5.02756     -2.89889     17.27053        -0.004283     -0.012167     -0.000943
      6.28436     -0.72844     17.23866         0.006601     -0.001917     -0.001250
      7.54073      1.41069     17.23533        -0.001675      0.004406      0.001169
      8.83777      3.65518     17.26837        -0.008946     -0.006034     -0.002712
     10.05751      5.80685     17.29812        -0.013039     -0.010395      0.003972
      5.02940     -7.24809     17.29710        -0.006205     -0.002968      0.005718
      6.28323     -5.07397     17.27932        -0.002737     -0.006583      0.003195
      7.53881     -2.90128     17.25385        -0.004130      0.001384     -0.001533
      8.79434     -0.72926     17.23974        -0.002782      0.005114     -0.000515
     10.05778      1.45022     17.25745        -0.003929      0.002934      0.000433
     11.31375      3.63339     17.28752        -0.014676     -0.001606      0.001349
      6.28379     -9.42410     17.30209        -0.002276     -0.000923     -0.000853
      7.53891     -7.24903     17.29788        -0.006331     -0.001066      0.003209
      8.79419     -5.07460     17.28731        -0.005120     -0.005855      0.005802
     10.05030     -2.89972     17.28026        -0.002023     -0.000169      0.002986
     11.30727     -0.72409     17.28013        -0.001119     -0.000281      0.003376
     12.56477      1.45360     17.29185        -0.002374      0.002855      0.004317
      7.53904    -11.60037     17.30590        -0.000786      0.003189     -0.004340
      8.79463     -9.42409     17.30727        -0.006649     -0.003809     -0.004532
     10.04854     -7.24841     17.30618         0.000724      0.001274     -0.002948
     11.30590     -5.07461     17.30423         0.004276     -0.001324     -0.001297
     12.56252     -2.89935     17.30108         0.003312      0.004920      0.001333
     13.81907     -0.72311     17.30254         0.002768      0.004110     -0.000260
      6.91871     -1.64920     21.41572         0.005235      0.001675      0.008220
      7.83535     -0.40387     21.58355         0.008369      0.003867      0.003543
      7.53231     -2.95072     21.99843         0.004300      0.012538     -0.012017
      7.09053      0.94900     21.40356         0.005104      0.010683     -0.004321
      8.03392      2.16624     21.19055         0.009728      0.005549     -0.000069
      7.37334      3.55064     21.34941         0.005799      0.001270      0.007454
      6.87267     -4.24943     21.46568        -0.002722      0.002718      0.000192
      8.19976      4.74886     20.77358         0.010883     -0.001478     -0.000695
      5.73963     -1.41627     22.03547         0.001097      0.004689      0.002619
      6.68292     -1.84593     20.09626         0.001987      0.003987     -0.003809
      8.38325     -0.44645     22.81969         0.002171      0.003173     -0.002945
      8.82449     -0.47821     20.65952         0.001735      0.002440      0.005985
      6.27398      0.82347     20.32506         0.000786      0.001697      0.004529
      6.33252      1.17208     22.50133         0.007990      0.002481      0.003921
      9.06925      2.03320     22.05200         0.003582      0.004583     -0.001756
      8.51561      2.08588     19.91452        -0.001964      0.004293     -0.004781
      8.84980     -3.00063     21.68976         0.004145      0.001575      0.004146
      7.39721     -2.93444     23.34061        -0.005443     -0.000796      0.015606
      6.13604      3.45668     20.76251         0.001233      0.005418      0.008313
      7.16077      3.76721     22.68848         0.006740      0.003942     -0.003335
      5.53692     -4.13937     21.49070         0.011135     -0.001273     -0.002746
      7.26581     -4.50024     20.21171         0.004213      0.002601     -0.002997
      7.23885     -5.27557     22.24112         0.002657      0.000477     -0.004003
      1.26028      0.72876     17.30466         0.000938     -0.001523     -0.003191
[...]
      6.28230     -7.97495     17.30040         0.002747      0.002820     -0.003390
      7.53866     -5.79909     17.28481         0.002639      0.001170      0.000455
      8.79420     -3.62263     17.27496        -0.002827     -0.002875      0.000710
     10.04827     -1.44468     17.26685        -0.005881      0.000296      0.000831
     11.30300      0.73018     17.27637         0.003857     -0.006109      0.000594
     12.56001      2.90383     17.29467        -0.003417      0.000857     -0.001713
      7.53925    -10.15001     17.30637        -0.000980     -0.001973     -0.000733
      8.79571     -7.97504     17.30553        -0.001006      0.002594     -0.000805
     10.05105     -5.79984     17.30194        -0.002464     -0.001539     -0.001318
     11.30609     -3.62393     17.29784        -0.001981     -0.005185     -0.001747
     12.56129     -1.44737     17.29680        -0.003609     -0.004710     -0.002664
     13.81807      0.72847     17.30218        -0.004885     -0.000063     -0.003528
      7.54055      2.90538     17.27010        -0.000940      0.004098      0.001224
      9.42561      4.66087     20.97835        -0.002628      0.001160     -0.000046
      7.51733      5.63776     20.23661        -0.000410      0.002838     -0.010567
    total drift:                               -0.412864     -0.342571     -0.017595

  FREE ENERGIE OF THE ION-ELECTRON SYSTEM (eV)
  free  energy   TOTEN  =      -876.27475373 eV

  energy  without entropy=     -876.27475373  energy(sigma->0) =     -876.27475373

 d Force = 0.1027075E-03[ 0.627E-04, 0.143E-03]  d Energy = 0.9697804E-04 0.573E-05
 d Force = 0.8015089E+00[ 0.802E+00, 0.801E+00]  d Ewald  = 0.8015089E+00 0.606E-07

 Conjugate gradient step on ions:
 trial-energy change:   -0.000097  1 .order   -0.000103   -0.000143   -0.000063
  (g-gl).g = 0.497E-03      g.g   = 0.499E-03  gl.gl    = 0.437E-03
 g(Force)  = 0.499E-03   g(Stress)= 0.000E+00 ortho     = 0.294E-04
 gamma     =   1.13787
 trial     =   0.26775
 opt step  =   0.47766  (harmonic =   0.47766) maximal distance =0.00080566
 next E    =  -876.274784   (d E  =  -0.00013)

 reached required accuracy - stopping structural energy minimisation
 writing wavefunctions

 total charge

[...]

 magnetization (x)

# of ion       s       p       d       tot
    1       -0.000   0.000   0.000   0.000
    2        0.000  -0.000   0.000  -0.000
    3        0.000  -0.000   0.000  -0.000
    4       -0.000  -0.000   0.000  -0.000
    5       -0.000   0.000   0.000   0.000
    6       -0.000  -0.000   0.000  -0.000
    7       -0.000  -0.000   0.000  -0.000
    8       -0.000  -0.000   0.000  -0.000
    9       -0.000  -0.000   0.000  -0.000
   10       -0.000   0.000   0.000   0.000
   11        0.000   0.000   0.000   0.000
   12       -0.000  -0.000   0.000  -0.000
   13        0.000  -0.000   0.000  -0.000
   14        0.000   0.000   0.000   0.000
   15       -0.000  -0.000   0.000  -0.000
   16       -0.000   0.000   0.000   0.000
   17        0.000   0.000   0.000   0.000
   18       -0.000  -0.000   0.000  -0.000
   19        0.000   0.000   0.000   0.000
   20        0.000   0.000   0.000   0.000
   21        0.000   0.000   0.000   0.000
   22       -0.000  -0.000   0.000  -0.000
   23        0.000   0.000   0.000   0.000
   24        0.000  -0.000   0.000  -0.000
   25        0.000  -0.000   0.000  -0.000
   26        0.000  -0.000   0.000  -0.000
   27       -0.000  -0.000   0.000  -0.000
   28        0.000  -0.000   0.000   0.000
   29       -0.000  -0.000   0.000  -0.000
   30       -0.000  -0.000   0.000  -0.000
   31        0.000   0.000   0.000   0.000
   32        0.000   0.000   0.000   0.000
   33       -0.000   0.000   0.000   0.000
   34       -0.000  -0.000   0.000  -0.000
   35       -0.000  -0.000   0.000  -0.000
   36       -0.000  -0.000   0.000  -0.000
   37        0.000   0.000   0.000   0.000
   38       -0.000  -0.000   0.000  -0.000
   39       -0.000   0.000   0.000   0.000
   40        0.000   0.000   0.000   0.000
   41       -0.000  -0.000   0.000  -0.000
   42        0.000   0.000   0.000   0.000
   43        0.000   0.000   0.000   0.000
   44        0.000  -0.000   0.000   0.000
   45        0.000   0.000   0.000   0.000
   46        0.000   0.000   0.000   0.000
   47       -0.000  -0.000   0.000  -0.000
   48       -0.000   0.000   0.000   0.000
   49        0.000  -0.000   0.000  -0.000
   50       -0.000  -0.000   0.000  -0.000
   51       -0.000  -0.000   0.000  -0.000
   52       -0.000  -0.000   0.000  -0.000
   53        0.000   0.000   0.000   0.000
   54       -0.000  -0.000   0.000  -0.000
   55       -0.000  -0.000   0.000  -0.000
   56       -0.000  -0.000   0.000  -0.000
   57        0.000   0.000   0.000   0.000
   58       -0.000  -0.000   0.000  -0.000
   59       -0.000   0.000   0.000   0.000
   60       -0.000  -0.000   0.000  -0.000
[...]
   83       -0.000  -0.000   0.000  -0.000
   84       -0.000  -0.000   0.000  -0.000
   85        0.000   0.000   0.000   0.000
   86        0.000   0.000   0.000   0.000
   87        0.000   0.000   0.000   0.000
   88       -0.000   0.000   0.000   0.000
   89       -0.000  -0.000   0.000  -0.000
   90        0.000   0.000   0.000   0.000
   91        0.000  -0.000   0.000  -0.000
   92        0.000   0.000   0.000   0.000
   93        0.000   0.000   0.000   0.000
   94        0.000   0.000   0.000   0.000
   95        0.000  -0.000   0.000  -0.000
   96        0.000  -0.000   0.000  -0.000
   97       -0.000   0.000   0.000   0.000
tot         -0.000  -0.000   0.000  -0.000