 vasp.5.4.4.18Apr17-6-g9f103f2a35 (build May 01 2020 14:57:12) complex

 executed on             LinuxIFC date 2021.01.23  15:38:35

 INCAR:
 POTCAR:    PAW_PBE B 06Sep2000
 POTCAR:    PAW_PBE N 08Apr2002
 POTCAR:    PAW_PBE O 08Apr2002

 POTCAR:    PAW_PBE B 06Sep2000
   VRHFIN =B: s2p1

   TITEL  = PAW_PBE B 06Sep2000
   POMASS =   10.811; ZVAL   =    3.000    mass and valenz
   ENMAX  =  318.614; ENMIN  =  238.960 eV

 POTCAR:    PAW_PBE N 08Apr2002
   VRHFIN =N: s2p3

   TITEL  = PAW_PBE N 08Apr2002
   POMASS =   14.001; ZVAL   =    5.000    mass and valenz
   ENMAX  =  400.000; ENMIN  =  300.000 eV

 POTCAR:    PAW_PBE O 08Apr2002
   VRHFIN =O: s2p4

   TITEL  = PAW_PBE O 08Apr2002
   POMASS =   16.000; ZVAL   =    6.000    mass and valenz
   ENMAX  =  400.000; ENMIN  =  300.000 eV

 Optimization of the real space projectors (new method)

 maximal supplied QI-value         = 22.11
 optimisation between [QCUT,QGAM] = [ 11.94, 23.88] = [ 39.92,159.67] Ry
 Optimized for a Real-space Cutoff    1.18 Angstroem

   l    n(q)    QCUT    max X(q) W(low)/X(q) W(high)/X(q)  e(spline)
   0      8    11.939    53.033    0.11E-03    0.34E-03    0.60E-07
   0      8    11.939    34.740    0.11E-03    0.34E-03    0.59E-07
   1      8    11.939    30.949    0.22E-03    0.20E-03    0.17E-06
   1      8    11.939    19.518    0.20E-03    0.18E-03    0.16E-06
 Optimization of the real space projectors (new method)

[...]

   l    n(q)    QCUT    max X(q) W(low)/X(q) W(high)/X(q)  e(spline)
   0     10    11.813    79.467    0.48E-04    0.30E-04    0.67E-06
   0     10    11.813    66.151    0.47E-04    0.30E-04    0.67E-06
   1     10    11.813    20.169    0.11E-03    0.17E-03    0.11E-05
   1     10    11.813    14.454    0.11E-03    0.17E-03    0.11E-05
 Optimization of the real space projectors (new method)

 maximal supplied QI-value         = 24.76
 optimisation between [QCUT,QGAM] = [ 11.88, 24.01] = [ 39.54,161.47] Ry
 Optimized for a Real-space Cutoff    1.18 Angstroem

   l    n(q)    QCUT    max X(q) W(low)/X(q) W(high)/X(q)  e(spline)
   0      8    11.883    20.381    0.86E-04    0.11E-03    0.31E-06
   0      8    11.883    15.268    0.94E-04    0.12E-03    0.33E-06
   1      8    11.883     5.964    0.19E-03    0.18E-04    0.33E-06
   1      8    11.883     5.382    0.17E-03    0.20E-04    0.29E-06
  PAW_PBE B 06Sep2000                   :
  PAW_PBE N 08Apr2002                   :
  PAW_PBE O 08Apr2002                   :

 POSCAR: B N O
  positions in direct lattice
  velocities in cartesian coordinates
 exchange correlation table for  LEXCH =        8
   RHO(1)=    0.500       N(1)  =     2000
   RHO(2)=  100.500       N(2)  =     4000

 ion  position               nearest neighbor table
   1  0.167  0.083  0.500-  21 1.45  17 1.45  20 1.45
   2  0.168  0.335  0.500-  18 1.44  17 1.46  22 1.46
   3  0.168  0.582  0.500-  18 1.44  19 1.46  23 1.46
   4  0.167  0.833  0.500-  24 1.45  19 1.45  20 1.45
   5  0.417  0.083  0.500-  25 1.45  21 1.46  24 1.46
   6  0.418  0.335  0.500-  32 1.44  21 1.46  22 1.46
   7  0.418  0.832  0.500-  27 1.44  24 1.46  23 1.46
   8  0.667  0.083  0.500-  27 1.45  25 1.45  28 1.45
   9  0.667  0.333  0.500-  32 1.45  25 1.45  29 1.45
  10  0.665  0.582  0.500-  32 1.44  30 1.46  26 1.46
  11  0.665  0.832  0.500-  27 1.44  31 1.46  26 1.46
  12  0.917  0.083  0.500-  28 1.45  17 1.46  31 1.46
  13  0.917  0.333  0.500-  18 1.45  29 1.45  28 1.45
  14  0.917  0.583  0.500-  29 1.45  30 1.46  19 1.46
  15  0.917  0.833  0.500-  30 1.45  31 1.45  20 1.45
  16  0.417  0.583  0.500-  22 1.42  26 1.42  23 1.42
  17  0.085  0.168  0.500-   1 1.45   2 1.46  12 1.46
  18  0.083  0.417  0.500-   3 1.44   2 1.44  13 1.45
  19  0.085  0.667  0.500-   4 1.45   3 1.46  14 1.46
  20  0.083  0.917  0.500-   4 1.45  15 1.45   1 1.45
  21  0.333  0.168  0.500-   1 1.45   6 1.46   5 1.46
  22  0.335  0.420  0.500-  16 1.42   2 1.46   6 1.46
  23  0.335  0.665  0.500-  16 1.42   7 1.46   3 1.46
  24  0.333  0.915  0.500-   4 1.45   7 1.46   5 1.46
  25  0.583  0.167  0.500-   5 1.45   8 1.45   9 1.45
  26  0.580  0.665  0.500-  16 1.42  11 1.46  10 1.46
  27  0.583  0.917  0.500-   7 1.44  11 1.44   8 1.45
  28  0.833  0.167  0.500-  12 1.45   8 1.45  13 1.45
  29  0.833  0.417  0.500-  14 1.45  13 1.45   9 1.45
  30  0.832  0.667  0.500-  15 1.45  10 1.46  14 1.46
  31  0.832  0.915  0.500-  15 1.45  11 1.46  12 1.46
  32  0.583  0.417  0.500-  10 1.44   6 1.44   9 1.45
  33  0.402  0.470  0.626-  34 1.25
  34  0.527  0.595  0.626-  33 1.25

  LATTYP: Found a hexagonal cell.
 ALAT       =    10.0487671536
 C/A-ratio  =     3.4944251219

  Lattice vectors:

 A1 = (   5.0243667045,  -8.7024973730,   0.0000000000)
 A2 = (   5.0243667045,   8.7024973730,   0.0000000000)
 A3 = (   0.0000000000,   0.0000000000,  35.1146643856)

Analysis of symmetry for initial positions (statically):
 Subroutine PRICEL returns:
 Original cell was already a primitive cell.

 Routine SETGRP: Setting up the symmetry group for a
 hexagonal supercell.

 Subroutine GETGRP returns: Found  1 space group operations
 (whereof  1 operations were pure point group operations)
 out of a pool of 24 trial point group operations.

The static configuration has the point symmetry C_1 .

Analysis of symmetry for dynamics (positions and initial velocities):
 Subroutine PRICEL returns:
 Original cell was already a primitive cell.

[...]

The dynamic configuration has the point symmetry C_1 .

Analysis of constrained symmetry for selective dynamics:
 Subroutine PRICEL returns:
 Original cell was already a primitive cell.

[...]

The constrained configuration has the point symmetry C_1 .

Analysis of structural, dynamic, and magnetic symmetry:
 Subroutine PRICEL returns:
 Original cell was already a primitive cell.

 Routine SETGRP: Setting up the symmetry group for a
 hexagonal supercell.

 Subroutine GETGRP returns: Found  1 space group operations
 (whereof  1 operations were pure point group operations)
 out of a pool of 24 trial point group operations.

The magnetic configuration has the point symmetry C_1 .

 Subroutine INISYM returns: Found  1 space group operations
 (whereof  1 operations are pure point group operations),
 and found     1 'primitive' translations

 KPOINTS: K-Point Grid

Automatic generation of k-mesh.
Space group operators:
 irot       det(A)        alpha          n_x          n_y          n_z        tau_x        tau_y        tau_z
    1     1.000000     0.000000     1.000000     0.000000     0.000000     0.000000     0.000000     0.000000

 Subroutine IBZKPT returns following result:

 Found     24 irreducible k-points:

 Following reciprocal coordinates:
            Coordinates               Weight
  0.125000  0.125000  0.000000     16.000000
  0.250000 -0.125000  0.000000     16.000000
  0.125000 -0.250000  0.000000     16.000000
  0.375000  0.125000  0.000000     16.000000
  0.500000 -0.375000  0.000000     16.000000
  0.125000  0.500000  0.000000     16.000000
 -0.125000 -0.375000  0.000000     16.000000
  0.375000  0.500000  0.000000     16.000000
  0.500000 -0.125000  0.000000     16.000000
 -0.375000  0.125000  0.000000     16.000000
 -0.250000  0.375000  0.000000     16.000000
  0.125000  0.250000  0.000000     16.000000
 -0.125000  0.375000  0.000000     16.000000
 -0.375000  0.250000  0.000000     16.000000
 -0.250000 -0.125000  0.000000     16.000000
 -0.125000  0.125000  0.000000     16.000000
  0.000000  0.125000  0.000000     16.000000
  0.125000  0.000000  0.000000     16.000000
  0.375000  0.375000  0.000000     16.000000
 -0.250000 -0.375000  0.000000     16.000000
  0.375000  0.250000  0.000000     16.000000
 -0.375000  0.375000  0.000000     16.000000
  0.000000  0.375000  0.000000     16.000000
  0.375000  0.000000  0.000000     16.000000

 Following cartesian coordinates:
            Coordinates               Weight
  0.024879  0.000000  0.000000     16.000000
  0.012439 -0.021546  0.000000     16.000000
 -0.012439 -0.021546  0.000000     16.000000
  0.049758 -0.014364  0.000000     16.000000
  0.012439 -0.050273  0.000000     16.000000
  0.062197  0.021546  0.000000     16.000000
 -0.049758 -0.014364  0.000000     16.000000
  0.087076  0.007182  0.000000     16.000000
  0.037318 -0.035909  0.000000     16.000000
 -0.024879  0.028727  0.000000     16.000000
  0.012439  0.035909  0.000000     16.000000
  0.037318  0.007182  0.000000     16.000000
  0.024879  0.028727  0.000000     16.000000
 -0.012439  0.035909  0.000000     16.000000
 -0.037318  0.007182  0.000000     16.000000
  0.000000  0.014364  0.000000     16.000000
  0.012439  0.007182  0.000000     16.000000
  0.012439 -0.007182  0.000000     16.000000
  0.074636  0.000000  0.000000     16.000000
 -0.062197 -0.007182  0.000000     16.000000
  0.062197 -0.007182  0.000000     16.000000
  0.000000  0.043091  0.000000     16.000000
  0.037318  0.021546  0.000000     16.000000
  0.037318 -0.021546  0.000000     16.000000

 SYSTEM =  SiC
 POSCAR =  B N O

 Startparameter for this run:
   NWRITE =      2    write-flag & timer
   PREC   = accura    normal or accurate (medium, high low for compatibility)
   ISTART =      1    job   : 0-new  1-cont  2-samecut
   ICHARG =      0    charge: 1-file 2-atom 10-const
   ISPIN  =      2    spin polarized calculation?
   LNONCOLLINEAR =      F non collinear calculations
   LSORBIT =      F    spin-orbit coupling
   INIWAV =      1    electr: 0-lowe 1-rand  2-diag
   LASPH  =      F    aspherical Exc in radial PAW
   METAGGA=      F    non-selfconsistent MetaGGA calc.

 Electronic Relaxation 1
   ENCUT  =  550.0 eV  40.42 Ry    6.36 a.u.  19.22 19.22 67.15*2*pi/ulx,y,z
   ENINI  =  550.0     initial cutoff
   ENAUG  =  627.1 eV  augmentation charge cutoff
   NELM   =    100;   NELMIN=  2; NELMDL=  0     # of ELM steps
   EDIFF  = 0.1E-04   stopping-criterion for ELM
   LREAL  =      T    real-space projection
   NLSPLINE    = F    spline interpolate recip. space projectors
   LCOMPAT=      F    compatible to vasp.4.4
   GGA_COMPAT  = T    GGA compatible to vasp.4.4-vasp.4.6
   LMAXPAW     = -100 max onsite density
   LMAXMIX     =    2 max onsite mixed and CHGCAR
   VOSKOWN=      0    Vosko Wilk Nusair interpolation
   ROPT   =   -0.00025  -0.00025  -0.00025
 Ionic relaxation
   EDIFFG = -.2E-01   stopping-criterion for IOM
   NSW    =    500    number of steps for IOM
   NBLOCK =      1;   KBLOCK =    500    inner block; outer block
   IBRION =      2    ionic relax: 0-MD 1-quasi-New 2-CG
   NFREE  =      1    steps in history (QN), initial steepest desc. (CG)
   ISIF   =      2    stress and relaxation
   IWAVPR =     11    prediction:  0-non 1-charg 2-wave 3-comb
   ISYM   =      2    0-nonsym 1-usesym 2-fastsym
   LCORR  =      T    Harris-Foulkes like correction to forces

   POTIM  = 0.5000    time-step for ionic-motion
   TEIN   =    0.0    initial temperature
   TEBEG  =    0.0;   TEEND  =   0.0 temperature during run
   SMASS  =  -3.00    Nose mass-parameter (am)
   estimated Nose-frequenzy (Omega)   =  0.10E-29 period in steps =****** mass=  -0.231E-26a.u.
   SCALEE = 1.0000    scale energy and forces
   NPACO  =    256;   APACO  = 16.0  distance and # of slots for P.C.
[...]
 next E    =  -286.379344   (d E  =  -0.00005)

 real space projection operators:
  max/ min on nodes  :       3614.38       3499.00

[...]

 eigenvalue-minimisations  :  6700
 total energy-change (2. order) : 0.1597971E-04  (-0.3776424E-06)
 number of electron     141.9999990 magnetization       1.5928082
 augmentation part        5.1600248 magnetization       0.3813592

[...]

 Broyden mixing:
  rms(total) = 0.14076E-02    rms(broyden)= 0.14045E-02
  rms(prec ) = 0.14620E-02
  weight for this iteration     100.00

 eigenvalues of (default mixing * dielectric matrix)
  average eigenvalue GAMMA=   0.6146
  1.2429  1.0543  1.0543  0.7310  0.7310  0.0798  0.2600  0.1812  0.1964

[...]

--------------------------------------- Iteration     10(  11)  ---------------------------------------

 eigenvalue-minimisations  :  6691
 total energy-change (2. order) :-0.9757287E-05  (-0.2581718E-06)
 number of electron     141.9999990 magnetization       1.5928478
 augmentation part        5.1603180 magnetization       0.3831964

 Free energy of the ion-electron system (eV)
  alpha Z        PSCENC =        34.98872654
  Ewald energy   TEWEN  =     45856.14030092
  -Hartree energ DENC   =    -51208.30710087
  -exchange      EXHF   =         0.00000000
  -V(xc)+E(xc)   XCENC  =       520.34912281
  PAW double counting   =     15552.60803266   -15570.13621749
  entropy T*S    EENTRO =        -0.03441103
  eigenvalues    EBANDS =     -1931.22747681
  atomic energy  EATOM  =      6429.38789286
  Solvation  Ediel_sol  =        29.85174534
  free energy    TOTEN  =      -286.37938506 eV

  energy without entropy =     -286.34497404  energy(sigma->0) =     -286.36217955

 average (electrostatic) potential at core
  the test charge radii are     0.7672  0.7089  0.7215
  (the norm of the test charge is              1.0000)
       1 -37.4347       2 -37.7855       3 -37.7857       4 -37.4349       5 -37.5418
       6 -37.7853       7 -37.7857       8 -37.4401       9 -37.4400      10 -37.7853
      11 -37.7854      12 -37.5418      13 -37.4401      14 -37.5418      15 -37.4347
      16 -76.8997      17 -73.4236      18 -73.4609      19 -73.4238      20 -73.3093
      21 -73.4235      22 -75.1180      23 -75.1181      24 -73.4238      25 -73.3009
      26 -75.1179      27 -73.4609      28 -73.3009      29 -73.3009      30 -73.4235
      31 -73.4236      32 -73.4606      33 -81.9690      34 -81.9690

 E-fermi :  -3.9689     XC(G=0):  -1.3546     alpha+bet : -1.0719

[...]

 spin component 2

[...]

 k-point    24 :       0.3750    0.0000    0.0000
  band No.  band energies     occupation
      1     -28.9496      1.00000
      2     -27.3069      1.00000
      3     -23.6104      1.00000
      4     -23.3402      1.00000
      5     -23.1789      1.00000
      6     -22.7784      1.00000
      7     -22.4034      1.00000
      8     -22.3151      1.00000
      9     -21.8909      1.00000
     10     -21.8389      1.00000
     11     -21.3301      1.00000
     12     -21.3099      1.00000
     13     -21.1431      1.00000
     14     -20.7947      1.00000
     15     -20.7300      1.00000
     16     -20.5205      1.00000
     17     -20.3824      1.00000
     18     -18.0278      1.00000
     19     -17.9928      1.00000
     20     -15.5346      1.00000
     21     -15.4648      1.00000
     22     -14.6620      1.00000
     23     -14.5477      1.00000
     24     -14.3400      1.00000
     25     -14.3016      1.00000
     26     -13.7880      1.00000
     27     -13.6278      1.00000
     28     -13.3568      1.00000
     29     -12.9828      1.00000
     30     -12.8657      1.00000
     31     -12.5533      1.00000
     32     -12.5383      1.00000
     33     -12.3168      1.00000
     34     -12.1066      1.00000
     35     -11.8317      1.00000
     36     -11.2818      1.00000
     37     -11.1638      1.00000
     38     -11.1602      1.00000
     39     -10.9478      1.00000
     40     -10.9188      1.00000
     41     -10.8953      1.00000
     42     -10.6753      1.00000
     43     -10.6001      1.00000
     44     -10.4268      1.00000
     45     -10.3868      1.00000
     46     -10.2334      1.00000
     47     -10.2083      1.00000
     48     -10.0578      1.00000
     49      -9.9171      1.00000
     50      -9.9156      1.00000
     51      -9.8965      1.00000
     52      -9.6913      1.00000
     53      -9.4699      1.00000
     54      -9.2632      1.00000
     55      -9.2347      1.00000
     56      -9.1159      1.00000
     57      -8.7740      1.00000
     58      -8.6069      1.00000
     59      -8.5897      1.00000
     60      -8.4624      1.00000
[...]
     94       0.7924      0.00000
     95       0.8055      0.00000
     96       0.8541      0.00000
     97       0.9401      0.00000
     98       1.0008      0.00000
     99       1.2155      0.00000
    100       1.2711      0.00000
    101       1.2787      0.00000
    102       1.3094      0.00000
    103       1.3157      0.00000
    104       1.4433      0.00000
    105       1.4553      0.00000
    106       1.4714      0.00000
    107       1.5378      0.00000
    108       1.5811      0.00000

[...]

 soft charge-density along one line, spin component           2
         0         1         2         3         4         5         6         7         8         9
 total charge-density along one line

------------------------ aborting loop because EDIFF is reached ----------------------------------------

[...]

  FORCE on cell =-STRESS in cart. coord.  units (eV):
  Direction    XX          YY          ZZ          XY          YZ          ZX
  Alpha Z    34.98873    34.98873    34.98873
  Ewald   50514.26856 50112.17112-54770.30645     0.04974   -11.20198    -0.18210
  Hartree 50263.32559 50065.47033-49120.10586     0.04159   -10.77396    -0.17269
  E(xc)    -572.80104  -573.86941  -589.58130     0.00004    -0.00011    -0.00001
  Local  ************************102027.85374    -0.08991    21.99436     0.35459
  n-local  -293.59475  -293.07894  -305.60427    -0.00029     0.00271    -0.00070
  augment    27.78364    30.98017    36.16559    -0.00011    -0.00106    -0.00001
  Kinetic  2313.37255  2353.91253  2685.63736    -0.00144    -0.00913     0.00019
  Fock        0.00000     0.00000     0.00000     0.00000     0.00000     0.00000
  Total      -7.81421    -7.96258    -0.95246    -0.00038     0.01083    -0.00073
  in kB      -4.07710    -4.15452    -0.49695    -0.00020     0.00565    -0.00038

 VOLUME and BASIS-vectors are now :
  energy-cutoff  :      550.00
  volume of cell :     3070.74
      direct lattice vectors                 reciprocal lattice vectors
     5.024366704 -8.702497373  0.000000000     0.099515029 -0.057454772  0.000000000
     5.024366704  8.702497373  0.000000000     0.099515029  0.057454772  0.000000000
     0.000000000  0.000000000 35.114664386     0.000000000  0.000000000  0.028478131

  length of vectors
    10.048767154 10.048767154 35.114664386     0.114909929  0.114909929  0.028478131

 FORCES acting on ions
    electron-ion (+dipol)            ewald-force                    non-local-force                 convergence-correction
   0.623E+01 0.332E+01 0.268E+02   -.626E+01 -.334E+01 -.260E+02   0.676E-01 0.391E-01 -.446E-03   -.789E-03 -.479E-03 0.264E-02
   0.173E+02 0.312E+01 0.309E+02   -.185E+02 -.246E+01 -.299E+02   0.114E+01 -.745E+00 -.222E-02   -.485E-02 0.105E-03 0.308E-02
   0.339E+01 -.175E+02 0.283E+02   -.461E+01 0.181E+02 -.274E+02   0.121E+01 -.612E+00 -.197E-02   -.276E-02 0.405E-02 0.277E-02
   0.104E-01 -.455E+01 0.249E+02   -.101E-01 0.466E+01 -.241E+02   0.502E-06 -.785E-01 -.387E-03   0.834E-06 0.117E-02 0.241E-02
   0.440E+01 -.855E-01 0.261E+02   -.415E+01 0.147E-01 -.253E+02   -.220E+00 0.126E+00 -.181E-03   0.459E-03 -.296E-04 0.255E-02
   0.140E+02 0.122E+02 0.341E+02   -.139E+02 -.136E+02 -.330E+02   -.772E-01 0.136E+01 -.219E-02   -.209E-02 -.436E-02 0.343E-02
   -.342E+01 -.175E+02 0.283E+02   0.463E+01 0.181E+02 -.274E+02   -.121E+01 -.612E+00 -.199E-02   0.275E-02 0.405E-02 0.277E-02
   -.367E+01 -.204E+01 0.253E+02   0.390E+01 0.217E+01 -.245E+02   -.196E+00 -.113E+00 -.529E-03   0.165E-02 0.956E-03 0.247E-02
   -.136E-01 0.695E+01 0.276E+02   0.132E-01 -.713E+01 -.267E+02   0.127E-05 0.226E+00 -.527E-03   -.141E-05 -.166E-02 0.271E-02
   -.141E+02 0.122E+02 0.340E+02   0.140E+02 -.135E+02 -.330E+02   0.772E-01 0.136E+01 -.226E-02   0.209E-02 -.436E-02 0.342E-02
   -.173E+02 0.315E+01 0.308E+02   0.185E+02 -.248E+01 -.298E+02   -.114E+01 -.745E+00 -.231E-02   0.485E-02 0.105E-03 0.307E-02
   0.394E-01 0.284E+01 0.258E+02   -.381E-01 -.261E+01 -.250E+02   0.228E-05 -.253E+00 -.186E-03   0.390E-05 0.320E-03 0.253E-02
   0.370E+01 -.207E+01 0.254E+02   -.392E+01 0.220E+01 -.246E+02   0.196E+00 -.113E+00 -.540E-03   -.165E-02 0.953E-03 0.247E-02
   -.440E+01 -.131E+00 0.261E+02   0.414E+01 0.585E-01 -.253E+02   0.220E+00 0.126E+00 -.177E-03   -.458E-03 -.339E-04 0.254E-02
   -.617E+01 0.330E+01 0.268E+02   0.620E+01 -.332E+01 -.259E+02   -.676E-01 0.391E-01 -.434E-03   0.794E-03 -.481E-03 0.263E-02
   -.878E-01 -.554E+01 0.620E+02   0.857E-01 0.537E+01 -.600E+02   -.289E-03 0.502E-03 -.133E+00   -.403E-05 -.490E-03 0.623E-02
   0.132E+02 0.787E+00 0.461E+02   -.137E+02 -.103E+01 -.446E+02   0.630E+00 0.188E+00 0.152E-02   -.278E-02 -.617E-03 0.461E-02
   0.206E+02 -.139E+02 0.470E+02   -.219E+02 0.146E+02 -.455E+02   0.127E+01 -.732E+00 0.576E-02   -.485E-02 0.258E-02 0.470E-02
   0.268E+01 -.946E+01 0.427E+02   -.285E+01 0.102E+02 -.414E+02   0.153E+00 -.640E+00 0.311E-03   -.116E-02 0.295E-02 0.419E-02
   0.478E-01 0.154E+01 0.421E+02   -.463E-01 -.148E+01 -.408E+02   -.651E-05 -.380E-03 0.210E-02   0.478E-05 0.167E-03 0.413E-02
   0.106E+02 0.110E+02 0.481E+02   -.110E+02 -.114E+02 -.465E+02   0.477E+00 0.451E+00 0.276E-02   -.161E-02 -.207E-02 0.482E-02
   0.705E+02 0.359E+02 0.615E+02   -.814E+02 -.423E+02 -.596E+02   0.110E+02 0.636E+01 0.411E-01   -.126E-01 -.774E-02 0.616E-02
   -.548E-01 -.830E+02 0.538E+02   0.533E-01 0.955E+02 -.522E+02   -.275E-05 -.127E+02 0.324E-01   -.471E-05 0.144E-01 0.524E-02
   -.268E+01 -.941E+01 0.427E+02   0.285E+01 0.101E+02 -.414E+02   -.153E+00 -.640E+00 0.298E-03   0.116E-02 0.295E-02 0.419E-02
   0.436E+00 0.331E+01 0.432E+02   -.368E+00 -.325E+01 -.419E+02   -.221E-01 0.122E-01 0.108E-02   0.707E-03 -.746E-04 0.424E-02
   -.706E+02 0.359E+02 0.614E+02   0.815E+02 -.423E+02 -.595E+02   -.110E+02 0.636E+01 0.415E-01   0.126E-01 -.774E-02 0.614E-02
   -.206E+02 -.138E+02 0.469E+02   0.218E+02 0.145E+02 -.454E+02   -.127E+01 -.732E+00 0.558E-02   0.485E-02 0.258E-02 0.469E-02
   0.428E-01 -.120E+01 0.419E+02   -.414E-01 0.122E+01 -.405E+02   -.260E-05 -.246E-01 0.698E-03   0.462E-05 0.635E-03 0.411E-02
   -.441E+00 0.326E+01 0.432E+02   0.373E+00 -.319E+01 -.419E+02   0.221E-01 0.122E-01 0.108E-02   -.708E-03 -.800E-04 0.424E-02
   -.106E+02 0.110E+02 0.479E+02   0.109E+02 -.113E+02 -.464E+02   -.477E+00 0.451E+00 0.260E-02   0.161E-02 -.208E-02 0.481E-02
   -.131E+02 0.790E+00 0.459E+02   0.136E+02 -.103E+01 -.445E+02   -.630E+00 0.188E+00 0.134E-02   0.279E-02 -.617E-03 0.459E-02
   -.604E-01 0.270E+02 0.551E+02   0.588E-01 -.284E+02 -.534E+02   -.180E-04 0.147E+01 0.822E-02   -.562E-05 -.527E-02 0.562E-02
   0.269E+03 0.125E+01 -.605E+03   -.314E+03 -.127E+01 0.607E+03   0.447E+02 0.160E-02 -.114E-01   0.181E-01 -.632E-03 0.723E-02
   -.269E+03 0.124E+01 -.605E+03   0.314E+03 -.126E+01 0.607E+03   -.447E+02 0.421E-03 -.113E-01   -.181E-01 -.591E-03 0.722E-02
   0.530E-04 -.225E-02 -.116E+00   0.114E-12 -.240E-13 0.227E-12   -.227E-04 0.403E-02 -.234E-01   -.410E-05 -.144E-02 0.139E+00

 POSITION                                       TOTAL-FORCE (eV/Angst)
      1.25719     -0.72458     17.55753         0.002833      0.001643      0.000060
      2.52374      1.46208     17.55770        -0.001106      0.003897     -0.003068
      3.76393      3.61018     17.55762        -0.003764     -0.001058     -0.002322
      5.02437      5.80040     17.55751         0.000001     -0.003404      0.000063
      2.51237     -2.90092     17.55750         0.000128     -0.000238      0.000364
      3.78417     -0.72103     17.55782         0.002860     -0.003078     -0.003357
      6.28481      3.61018     17.55762         0.003768     -0.001061     -0.002318
      3.77037     -5.07524     17.55746         0.008725      0.004945     -0.000027
      5.02437     -2.90322     17.55751         0.000000     -0.010219      0.000173
      6.26457     -0.72103     17.55781        -0.002850     -0.003076     -0.003394
      7.52499      1.46208     17.55769         0.001107      0.003892     -0.003084
      5.02437     -7.25189     17.55748        -0.000001      0.000303      0.000433
      6.27837     -5.07524     17.55746        -0.008730      0.004948     -0.000035
      7.53637     -2.90092     17.55750        -0.000127     -0.000237      0.000364
      8.79155     -0.72458     17.55754        -0.002829      0.001642      0.000054
      5.02437      1.45040     17.55816         0.000005      0.000117      0.008987
      1.26974      0.72494     17.55736         0.007319      0.003996      0.000707
      2.50973      2.90224     17.55734         0.004571     -0.002577      0.001998
      3.77532      5.06476     17.55737         0.000287     -0.008221      0.000343
      5.02437      7.25207     17.55730         0.000003      0.000042      0.000264
      2.51879     -1.43846     17.55737         0.007011      0.004287      0.001025
      3.80157      0.74443     17.55680        -0.003516     -0.001872      0.001757
      5.02437      2.86239     17.55690         0.000004      0.004257      0.000290
      6.27342      5.06476     17.55737        -0.000286     -0.008224      0.000339
      3.76688     -3.62522     17.55728         0.002330     -0.001545      0.000141
      6.24718      0.74442     17.55677         0.003527     -0.001874      0.001633
      7.53901      2.90224     17.55734        -0.004571     -0.002582      0.001994
      5.02437     -5.80329     17.55728        -0.000001      0.002770      0.000096
      6.28186     -3.62522     17.55728        -0.002330     -0.001544      0.000135
      7.52995     -1.43846     17.55737        -0.007006      0.004286      0.001003
      8.77900      0.72494     17.55736        -0.007317      0.003993      0.000675
      5.02437     -1.45323     17.55739         0.000004      0.005237      0.002969
      4.36984      0.59266     21.98642        -0.006935     -0.000474     -0.003826
      5.64957      0.59270     21.98642         0.006886      0.001028     -0.004436
    total drift:                                0.000026      0.000328     -0.000840

  FREE ENERGIE OF THE ION-ELECTRON SYSTEM (eV)
  free  energy   TOTEN  =      -286.37938506 eV

  energy  without entropy=     -286.34497404  energy(sigma->0) =     -286.36217955

 d Force = 0.2328539E-04[-0.549E-04, 0.101E-03]  d Energy = 0.1057647E-03-0.825E-04
 d Force = 0.1894837E+00[ 0.189E+00, 0.190E+00]  d Ewald  = 0.1894838E+00-0.421E-07

 reached required accuracy - stopping structural energy minimisation
 writing wavefunctions

 total charge

[...]

 magnetization (x)

# of ion       s       p       d       tot
    1        0.000  -0.000   0.000   0.000
    2        0.000  -0.000   0.000   0.000
    3       -0.000  -0.000   0.000  -0.000
    4        0.000   0.000   0.000   0.000
    5       -0.000  -0.000   0.000  -0.000
    6       -0.000  -0.000   0.000  -0.000
    7       -0.000  -0.000   0.000  -0.000
    8       -0.000   0.000   0.000  -0.000
    9        0.000   0.000   0.000   0.000
   10       -0.000  -0.000   0.000  -0.000
   11        0.000  -0.000   0.000  -0.000
   12       -0.000  -0.000   0.000  -0.000
   13       -0.000  -0.000   0.000  -0.000
   14       -0.000  -0.000   0.000  -0.000
   15        0.000   0.000   0.000   0.000
   16       -0.000   0.000   0.000   0.000
   17        0.000   0.000   0.000   0.000
   18       -0.000   0.000   0.000   0.000
   19        0.000   0.000   0.000   0.000
   20       -0.000   0.000   0.000   0.000
   21        0.000   0.000   0.000   0.000
   22        0.000   0.000   0.000   0.000
   23       -0.000  -0.000   0.000  -0.000
   24        0.000   0.000   0.000   0.000
   25        0.000   0.000   0.000   0.000
   26       -0.000   0.000   0.000   0.000
   27       -0.000   0.000   0.000   0.000
   28        0.000   0.000   0.000   0.000
   29        0.000   0.000   0.000   0.000
   30        0.000   0.000   0.000   0.000
   31        0.000   0.000   0.000   0.000
   32       -0.000  -0.000   0.000  -0.000
   33        0.008   0.632   0.000   0.640
   34        0.008   0.632   0.000   0.640
tot          0.017   1.263   0.000   1.280