 vasp.5.4.4.18Apr17-6-g9f103f2a35 (build May 01 2020 14:57:12) complex

 executed on             LinuxIFC date 2021.12.06  15:54:03

 INCAR:
 POTCAR:    PAW_PBE B 06Sep2000
 POTCAR:    PAW_PBE N 08Apr2002
 POTCAR:    PAW_PBE C 08Apr2002
 POTCAR:    PAW_PBE F 08Apr2002
 POTCAR:    PAW_PBE O 08Apr2002

 POTCAR:    PAW_PBE B 06Sep2000
   VRHFIN =B: s2p1

   TITEL  = PAW_PBE B 06Sep2000
   POMASS =   10.811; ZVAL   =    3.000    mass and valenz
   ENMAX  =  318.614; ENMIN  =  238.960 eV

 POTCAR:    PAW_PBE N 08Apr2002
   VRHFIN =N: s2p3

   TITEL  = PAW_PBE N 08Apr2002
   POMASS =   14.001; ZVAL   =    5.000    mass and valenz
   ENMAX  =  400.000; ENMIN  =  300.000 eV

 POTCAR:    PAW_PBE C 08Apr2002
   VRHFIN =C: s2p2

[...]

 POTCAR:    PAW_PBE F 08Apr2002
   VRHFIN =F: s2p5

[...]

 POTCAR:    PAW_PBE O 08Apr2002
   VRHFIN =O: s2p4

   TITEL  = PAW_PBE O 08Apr2002
   POMASS =   16.000; ZVAL   =    6.000    mass and valenz
   ENMAX  =  400.000; ENMIN  =  300.000 eV

 Optimization of the real space projectors (new method)

 maximal supplied QI-value         = 22.11
 optimisation between [QCUT,QGAM] = [ 11.94, 23.88] = [ 39.92,159.67] Ry
 Optimized for a Real-space Cutoff    1.18 Angstroem

   l    n(q)    QCUT    max X(q) W(low)/X(q) W(high)/X(q)  e(spline)
   0      8    11.939    53.033    0.11E-03    0.34E-03    0.60E-07
   0      8    11.939    34.740    0.11E-03    0.34E-03    0.59E-07
   1      8    11.939    30.949    0.22E-03    0.20E-03    0.17E-06
   1      8    11.939    19.518    0.20E-03    0.18E-03    0.16E-06
 Optimization of the real space projectors (new method)

[...]

   l    n(q)    QCUT    max X(q) W(low)/X(q) W(high)/X(q)  e(spline)
   0      8    11.883    14.049    0.56E-04    0.86E-04    0.22E-06
   0      8    11.883     8.945    0.81E-04    0.11E-03    0.30E-06
   1      8    11.883     7.086    0.16E-03    0.15E-04    0.31E-06
   1      8    11.883     6.747    0.15E-03    0.14E-04    0.28E-06
 Optimization of the real space projectors (new method)

 maximal supplied QI-value         = 24.76
 optimisation between [QCUT,QGAM] = [ 11.88, 24.01] = [ 39.54,161.47] Ry
 Optimized for a Real-space Cutoff    1.18 Angstroem

   l    n(q)    QCUT    max X(q) W(low)/X(q) W(high)/X(q)  e(spline)
   0      8    11.883    20.381    0.86E-04    0.11E-03    0.31E-06
   0      8    11.883    15.268    0.94E-04    0.12E-03    0.33E-06
   1      8    11.883     5.964    0.19E-03    0.18E-04    0.33E-06
   1      8    11.883     5.382    0.17E-03    0.20E-04    0.29E-06
  PAW_PBE B 06Sep2000                   :
  PAW_PBE N 08Apr2002                   :
  PAW_PBE C 08Apr2002                   :
  PAW_PBE F 08Apr2002                   :
  PAW_PBE O 08Apr2002                   :

 POSCAR: B N C F O
  positions in direct lattice
  velocities in cartesian coordinates

 METAGGA = SCAN     LMAXTAU =  6    LMIXTAU =  F

 ion  position               nearest neighbor table
   1  0.110  0.057  0.492-  42 1.45  43 1.45  37 1.45
   2  0.110  0.224  0.492-  37 1.45  44 1.45  38 1.45
   3  0.110  0.390  0.491-  39 1.45  38 1.45  45 1.45
   4  0.110  0.557  0.492-  46 1.45  40 1.45  39 1.45
   5  0.110  0.724  0.492-  47 1.45  40 1.45  41 1.45
   6  0.110  0.890  0.492-  48 1.45  41 1.45  42 1.45
   7  0.276  0.057  0.492-  48 1.45  49 1.45  43 1.45
   8  0.276  0.224  0.492-  43 1.45  44 1.45  50 1.45
   9  0.276  0.390  0.491-  45 1.45  51 1.45  44 1.45
  10  0.276  0.557  0.491-  46 1.45  52 1.45  45 1.45
  11  0.276  0.724  0.492-  53 1.45  46 1.45  47 1.45
  12  0.276  0.890  0.492-  47 1.45  54 1.45  48 1.45
  13  0.443  0.057  0.492-  54 1.45  49 1.45  55 1.45
  14  0.443  0.224  0.492-  49 1.45  56 1.45  50 1.45
  15  0.443  0.390  0.491-  50 1.45  57 1.45  51 1.45
  16  0.443  0.557  0.491-  52 1.45  51 1.45  58 1.45
  17  0.443  0.724  0.491-  53 1.45  59 1.45  52 1.45
  18  0.443  0.890  0.492-  53 1.45  60 1.45  54 1.45
  19  0.610  0.057  0.492-  60 1.45  61 1.45  55 1.45
  20  0.610  0.224  0.492-  55 1.45  62 1.45  56 1.45
  21  0.610  0.390  0.491-  56 1.45  63 1.45  57 1.45
  22  0.610  0.557  0.491-  58 1.45  57 1.45  64 1.45
  23  0.610  0.724  0.491-  59 1.45  65 1.45  58 1.45
  24  0.610  0.890  0.492-  60 1.45  66 1.45  59 1.45
  25  0.776  0.057  0.492-  66 1.45  67 1.45  61 1.45
  26  0.776  0.224  0.492-  61 1.45  68 1.45  62 1.45
  27  0.776  0.390  0.492-  62 1.45  69 1.45  63 1.45
  28  0.776  0.557  0.492-  70 1.45  63 1.45  64 1.45
  29  0.776  0.724  0.491-  71 1.45  65 1.45  64 1.45
  30  0.776  0.890  0.491-  65 1.45  66 1.45  72 1.45
  31  0.943  0.057  0.492-  72 1.45  67 1.45  37 1.45
  32  0.943  0.224  0.492-  67 1.45  68 1.45  38 1.45
  33  0.943  0.390  0.492-  39 1.45  68 1.45  69 1.45
  34  0.943  0.557  0.492-  40 1.45  70 1.45  69 1.45
  35  0.943  0.724  0.492-  41 1.45  70 1.45  71 1.45
  36  0.943  0.890  0.492-  42 1.45  71 1.45  72 1.45
  37  0.054  0.112  0.492-   2 1.45  31 1.45   1 1.45
  38  0.054  0.279  0.492-   3 1.45  32 1.45   2 1.45
  39  0.054  0.446  0.492-  33 1.45   3 1.45   4 1.45
  40  0.054  0.612  0.492-  34 1.45   4 1.45   5 1.45
  41  0.054  0.779  0.492-  35 1.45   6 1.45   5 1.45
  42  0.054  0.946  0.492-  36 1.45   1 1.45   6 1.45
  43  0.221  0.112  0.492-   8 1.45   1 1.45   7 1.45
  44  0.221  0.279  0.491-   2 1.45   8 1.45   9 1.45
  45  0.221  0.446  0.491-   9 1.45   3 1.45  10 1.45
  46  0.221  0.612  0.491-   4 1.45  10 1.45  11 1.45
  47  0.221  0.779  0.492-   5 1.45  12 1.45  11 1.45
  48  0.221  0.946  0.492-   6 1.45   7 1.45  12 1.45
  49  0.388  0.112  0.492-  14 1.45   7 1.45  13 1.45
  50  0.388  0.279  0.491-  15 1.45  14 1.45   8 1.45
  51  0.388  0.446  0.491-  16 1.45   9 1.45  15 1.45
  52  0.387  0.612  0.491-  10 1.45  16 1.45  17 1.45
  53  0.388  0.779  0.491-  17 1.45  18 1.45  11 1.45
  54  0.388  0.946  0.493-  13 1.45  12 1.45  18 1.45
  55  0.554  0.112  0.492-  20 1.45  13 1.45  19 1.45
  56  0.554  0.279  0.492-  21 1.45  14 1.45  20 1.45
  57  0.554  0.446  0.491-  22 1.45  15 1.45  21 1.45
  58  0.554  0.612  0.490-  22 1.45  23 1.45  16 1.45
  59  0.554  0.779  0.491-  23 1.45  24 1.45  17 1.45
  60  0.554  0.946  0.492-  19 1.45  24 1.45  18 1.45
[...]
  83  0.577  0.534  0.652-  74 1.35
  84  0.609  0.565  0.591-  74 1.35
  85  0.389  0.445  0.581-  76 1.36
  86  0.380  0.461  0.643-  76 1.35
  87  0.529  0.676  0.630-  77 1.36
  88  0.490  0.643  0.570-  77 1.36
  89  0.706  0.468  0.621-  75 1.35
  90  0.604  0.372  0.666-  75 1.35
  91  0.278  0.536  0.595-  78 1.37
  92  0.339  0.619  0.649-  78 1.37
  93  0.531  0.205  0.613-  79 1.34
  94  0.659  0.308  0.577-  79 1.34
  95  0.688  0.275  0.635-  79 1.34
  96  0.448  0.801  0.601-  80 1.25
  97  0.287  0.710  0.578-  80 1.24

  LATTYP: Found a hexagonal cell.
 ALAT       =    15.0731507304
 C/A-ratio  =     2.3296167479

  Lattice vectors:

 A1 = (   7.5365500567, -13.0537460594,   0.0000000000)
 A2 = (   7.5365500567,  13.0537460594,   0.0000000000)
 A3 = (   0.0000000000,   0.0000000000,  35.1146643856)

Analysis of symmetry for initial positions (statically):
 Subroutine PRICEL returns:
 Original cell was already a primitive cell.

 Routine SETGRP: Setting up the symmetry group for a
 hexagonal supercell.

 Subroutine GETGRP returns: Found  1 space group operations
 (whereof  1 operations were pure point group operations)
 out of a pool of 24 trial point group operations.

The static configuration has the point symmetry C_1 .

Analysis of symmetry for dynamics (positions and initial velocities):
 Subroutine PRICEL returns:
 Original cell was already a primitive cell.

[...]

The dynamic configuration has the point symmetry C_1 .

Analysis of constrained symmetry for selective dynamics:
 Subroutine PRICEL returns:
 Original cell was already a primitive cell.

[...]

The constrained configuration has the point symmetry C_1 .

Analysis of structural, dynamic, and magnetic symmetry:
 Subroutine PRICEL returns:
 Original cell was already a primitive cell.

 Routine SETGRP: Setting up the symmetry group for a
 hexagonal supercell.

 Subroutine GETGRP returns: Found  1 space group operations
 (whereof  1 operations were pure point group operations)
 out of a pool of 24 trial point group operations.

The magnetic configuration has the point symmetry C_1 .

 Subroutine INISYM returns: Found  1 space group operations
 (whereof  1 operations are pure point group operations),
 and found     1 'primitive' translations

 KPOINTS: K-Point Grid

Automatic generation of k-mesh.
Space group operators:
 irot       det(A)        alpha          n_x          n_y          n_z        tau_x        tau_y        tau_z
    1     1.000000     0.000000     1.000000     0.000000     0.000000     0.000000     0.000000     0.000000

 Subroutine IBZKPT returns following result:

 Found      5 irreducible k-points:

 Following reciprocal coordinates:
            Coordinates               Weight
  0.000000  0.000000  0.000000      1.000000
  0.333333  0.000000  0.000000      2.000000
  0.000000  0.333333  0.000000      2.000000
  0.333333  0.333333  0.000000      2.000000
 -0.333333  0.333333  0.000000      2.000000

 Following cartesian coordinates:
            Coordinates               Weight
  0.000000  0.000000  0.000000      1.000000
  0.022114 -0.012768  0.000000      2.000000
  0.022114  0.012768  0.000000      2.000000
  0.044229  0.000000  0.000000      2.000000
  0.000000  0.025535  0.000000      2.000000

 SYSTEM =  SiC
 POSCAR =  B N C F O

 Startparameter for this run:
   NWRITE =      2    write-flag & timer
   PREC   = accura    normal or accurate (medium, high low for compatibility)
   ISTART =      1    job   : 0-new  1-cont  2-samecut
   ICHARG =      0    charge: 1-file 2-atom 10-const
   ISPIN  =      2    spin polarized calculation?
   LNONCOLLINEAR =      F non collinear calculations
   LSORBIT =      F    spin-orbit coupling
   INIWAV =      1    electr: 0-lowe 1-rand  2-diag
   LASPH  =      T    aspherical Exc in radial PAW
   METAGGA=      F    non-selfconsistent MetaGGA calc.

 Electronic Relaxation 1
   ENCUT  =  550.0 eV  40.42 Ry    6.36 a.u.  28.82 28.82 67.15*2*pi/ulx,y,z
   ENINI  =  550.0     initial cutoff
   ENAUG  =  644.9 eV  augmentation charge cutoff
   NELM   =    100;   NELMIN=  2; NELMDL=  0     # of ELM steps
   EDIFF  = 0.1E-04   stopping-criterion for ELM
   LREAL  =      T    real-space projection
   NLSPLINE    = F    spline interpolate recip. space projectors
   LCOMPAT=      F    compatible to vasp.4.4
   GGA_COMPAT  = T    GGA compatible to vasp.4.4-vasp.4.6
   LMAXPAW     = -100 max onsite density
   LMAXMIX     =    2 max onsite mixed and CHGCAR
   VOSKOWN=      0    Vosko Wilk Nusair interpolation
   ROPT   =   -0.00025  -0.00025  -0.00025  -0.00025
   ROPT   =   -0.00025
 Ionic relaxation
   EDIFFG = -.2E-01   stopping-criterion for IOM
   NSW    =    500    number of steps for IOM
   NBLOCK =      1;   KBLOCK =    500    inner block; outer block
   IBRION =      2    ionic relax: 0-MD 1-quasi-New 2-CG
   NFREE  =      1    steps in history (QN), initial steepest desc. (CG)
   ISIF   =      2    stress and relaxation
   IWAVPR =     11    prediction:  0-non 1-charg 2-wave 3-comb
[...]
   -.446E+02 0.304E+01 0.126E+03   0.443E+02 -.283E+01 -.125E+03   0.278E-02 -.611E-02 -.781E-03   -.338E-03 0.227E-03 0.823E-03
   -.358E+00 0.399E+01 0.105E+03   0.292E+00 -.392E+01 -.104E+03   0.565E-03 -.467E-02 -.303E-02   -.147E-03 0.404E-04 0.794E-03
   0.120E+02 0.105E+02 0.113E+03   -.119E+02 -.104E+02 -.112E+03   0.603E-02 -.491E-02 -.315E-02   0.124E-03 0.600E-04 0.827E-03
   0.211E+01 0.127E+02 0.127E+03   -.183E+01 -.127E+02 -.127E+03   -.665E-02 0.693E-02 -.148E-06   0.410E-03 -.736E-04 0.104E-02
   -.203E+02 0.537E+01 0.130E+03   0.206E+02 -.558E+01 -.129E+03   -.197E-01 0.377E-02 0.549E-02   0.442E-03 -.225E-03 0.118E-02
   -.307E+02 0.407E+00 0.119E+03   0.308E+02 -.604E+00 -.118E+03   -.233E-02 0.382E-03 0.333E-02   0.150E-03 -.250E-03 0.110E-02
   -.206E+02 0.410E+00 0.108E+03   0.206E+02 -.455E+00 -.107E+03   -.113E-02 0.837E-03 -.129E-02   -.105E-03 -.266E-04 0.929E-03
   0.400E+02 -.544E+00 0.182E+03   -.399E+02 0.572E+00 -.181E+03   0.442E-02 0.176E-02 0.110E-01   0.148E-04 -.607E-04 0.151E-02
   0.585E+02 -.331E+01 0.204E+03   -.581E+02 0.347E+01 -.203E+03   -.505E-02 -.908E-02 0.587E-03   0.465E-03 0.278E-03 0.119E-02
   0.418E+02 -.164E+02 0.223E+03   -.409E+02 0.165E+02 -.222E+03   -.486E-01 -.240E-01 0.450E-02   0.125E-02 0.178E-04 0.209E-02
   0.376E+01 -.295E+02 0.212E+03   -.294E+01 0.289E+02 -.211E+03   -.396E-01 0.250E-01 -.753E-01   0.116E-02 -.758E-03 0.301E-02
   -.146E+02 -.216E+02 0.185E+03   0.149E+02 0.208E+02 -.184E+03   -.396E-02 0.438E-01 -.273E-01   0.176E-03 -.851E-03 0.305E-02
   0.569E+01 -.692E+01 0.173E+03   -.569E+01 0.661E+01 -.172E+03   0.164E-02 0.103E-01 0.285E-02   -.226E-04 -.295E-03 0.244E-02
   0.774E+02 -.310E+01 0.210E+03   -.773E+02 0.289E+01 -.209E+03   0.491E-02 0.946E-02 -.632E-01   0.174E-03 -.370E-03 0.210E-02
   0.106E+03 -.108E+02 0.259E+03   -.106E+03 0.111E+02 -.258E+03   -.166E-02 -.104E-01 -.506E-02   0.346E-03 0.997E-04 0.139E-02
   0.932E+02 -.393E+02 0.301E+03   -.924E+02 0.398E+02 -.299E+03   -.489E-01 -.394E-01 -.242E-01   0.114E-02 0.849E-03 0.167E-02
   0.479E+02 -.678E+02 0.301E+03   -.471E+02 0.680E+02 -.299E+03   -.139E+00 -.702E-01 0.105E+00   0.132E-02 -.540E-04 0.377E-02
   0.112E+02 -.674E+02 0.232E+03   -.110E+02 0.663E+02 -.229E+03   -.389E-02 0.150E+00 -.997E-01   0.159E-03 -.135E-02 0.423E-02
   0.322E+02 -.244E+02 0.189E+03   -.323E+02 0.235E+02 -.188E+03   0.151E-02 0.577E-01 -.106E+00   -.230E-03 -.115E-02 0.276E-02
   0.762E+02 0.133E+02 0.247E+03   -.765E+02 -.138E+02 -.245E+03   0.114E-01 0.184E-01 -.179E+00   -.347E-03 -.289E-03 0.104E-02
   0.105E+03 0.132E+02 0.331E+03   -.105E+03 -.130E+02 -.330E+03   0.289E-02 0.192E-02 -.240E-01   0.315E-04 -.552E-04 0.121E-02
   0.702E+02 -.143E+02 0.401E+03   -.699E+02 0.148E+02 -.400E+03   -.772E-02 -.256E-01 0.153E+00   0.433E-03 0.823E-03 0.154E-02
   0.114E+02 -.551E+02 0.396E+03   -.112E+02 0.557E+02 -.394E+03   -.237E-01 -.429E-01 0.788E-01   0.479E-03 0.134E-02 0.264E-02
   -.295E+02 -.671E+02 0.316E+03   0.292E+02 0.673E+02 -.313E+03   0.114E+00 -.790E-01 0.726E-01   -.733E-03 -.236E-03 0.477E-02
   0.937E+01 -.302E+02 0.227E+03   -.100E+02 0.293E+02 -.224E+03   0.387E-01 0.497E-01 -.194E+00   -.108E-02 -.995E-03 0.213E-02
   0.258E+02 0.437E+02 0.254E+03   -.264E+02 -.440E+02 -.253E+03   0.162E-01 0.164E-01 -.169E+00   -.717E-03 -.466E-03 0.155E-02
   0.418E+02 0.569E+02 0.357E+03   -.418E+02 -.570E+02 -.356E+03   0.321E-02 0.186E-01 -.188E-01   -.289E-03 0.185E-03 0.102E-02
   -.165E+02 0.295E+02 0.415E+03   0.165E+02 -.292E+02 -.414E+03   0.317E-02 0.630E-02 0.195E+00   -.530E-04 0.464E-03 0.829E-03
   -.726E+02 0.254E+01 0.402E+03   0.725E+02 -.190E+01 -.401E+03   0.668E-02 -.388E-01 0.189E+00   -.177E-04 0.957E-03 0.198E-02
   -.940E+02 -.293E+02 0.321E+03   0.935E+02 0.300E+02 -.318E+03   0.454E-01 -.395E-01 0.532E-01   -.105E-02 0.898E-03 0.226E-02
   -.448E+02 -.886E+01 0.240E+03   0.439E+02 0.885E+01 -.238E+03   0.545E-01 -.221E-01 -.841E-01   -.143E-02 -.355E-03 0.352E-02
[...]
   -.617E+03 0.894E+02 -.270E+03   0.661E+03 -.912E+02 0.234E+03   -.431E+02 0.324E+01 0.379E+02   0.795E-04 0.220E-02 0.289E-02
   0.508E+03 -.533E+02 -.150E+03   -.542E+03 0.512E+02 0.107E+03   0.346E+02 0.368E+01 0.451E+02   0.181E-02 0.299E-02 0.345E-02
   0.489E+03 -.145E+03 -.125E+04   -.522E+03 0.156E+03 0.130E+04   0.329E+02 -.933E+01 -.461E+02   0.170E-02 0.333E-02 0.298E-04
   -.616E+03 -.112E+03 -.108E+04   0.661E+03 0.111E+03 0.111E+04   -.437E+02 0.396E+01 -.355E+02   -.102E-02 0.657E-02 -.648E-03
   -.341E+03 -.106E+03 -.422E+02   0.363E+03 0.106E+03 -.677E+01   -.211E+02 0.212E+01 0.517E+02   0.352E-03 0.633E-02 0.517E-02
   -.698E+03 0.255E+03 -.684E+03   0.755E+03 -.257E+03 0.675E+03   -.566E+02 0.264E+01 0.106E+02   0.380E-03 0.406E-03 0.191E-02
   0.104E+02 0.180E+03 -.144E+04   -.169E+02 -.179E+03 0.150E+04   0.651E+01 -.532E+00 -.578E+02   -.146E-03 -.234E-03 0.454E-03
   0.593E+03 -.277E+03 -.465E+03   -.642E+03 0.279E+03 0.445E+03   0.489E+02 0.603E+00 0.216E+02   0.533E-02 0.560E-02 0.242E-02
   0.124E+03 -.368E+03 -.131E+04   -.130E+03 0.379E+03 0.137E+04   0.664E+01 -.900E+01 -.517E+02   0.284E-02 0.403E-02 -.423E-02
   0.638E+03 0.257E+03 -.692E+03   -.699E+03 -.254E+03 0.694E+03   0.590E+02 -.285E+01 -.663E+00   0.538E-04 -.108E-02 0.140E-02
   -.136E+03 0.398E+03 -.105E+03   0.153E+03 -.409E+03 0.514E+02   -.174E+02 0.113E+02 0.554E+02   -.400E-03 -.659E-03 0.328E-02
   -.121E+03 0.649E+03 -.101E+04   0.136E+03 -.696E+03 0.104E+04   -.160E+02 0.461E+02 -.336E+02   -.115E-02 0.516E-03 0.767E-03
   -.452E+03 -.246E+03 -.605E+03   0.505E+03 0.247E+03 0.615E+03   -.499E+02 0.107E+01 -.888E+01   -.519E-02 0.225E-02 0.711E-04
   0.150E+03 -.465E+03 -.349E+03   -.177E+03 0.503E+03 0.328E+03   0.273E+02 -.360E+02 0.244E+02   0.442E-02 -.204E-02 0.388E-02
   -.288E+00 -.336E+01 0.418E+01   -.398E-12 0.739E-12 0.296E-11   0.262E+00 0.324E+01 -.437E+01   0.147E-01 0.491E-01 0.143E+00

 POSITION                                       TOTAL-FORCE (eV/Angst)
      1.25628     -0.69001     17.26732         0.000657     -0.000550      0.010108
      2.51241      1.48555     17.25955        -0.000446      0.001620      0.000713
      3.76852      3.66137     17.25751         0.001137      0.003356     -0.001242
      5.02528      5.83661     17.26172        -0.000959     -0.000719     -0.000537
      6.28143      8.01174     17.27486        -0.002477     -0.000893      0.008262
      7.53692     10.18797     17.27553        -0.001516      0.002148      0.009607
      2.51221     -2.86576     17.28385        -0.000660     -0.003424      0.005048
      3.76858     -0.68977     17.26310        -0.001066     -0.001332      0.004140
      5.02468      1.48600     17.24548        -0.002513      0.003186     -0.000218
      6.28083      3.66247     17.24652        -0.000543      0.002107     -0.005336
      7.53703      5.83606     17.27878        -0.000771      0.002095      0.000957
      8.79196      8.01162     17.28801        -0.000236     -0.001464      0.001597
      3.76807     -5.04146     17.29229         0.001474     -0.001208     -0.006533
      5.02442     -2.86545     17.27126         0.000371     -0.003600     -0.000433
      6.28079     -0.68955     17.23739         0.000686      0.003569     -0.000001
      7.53675      1.48653     17.22615         0.000059      0.003102      0.002382
      8.79263      3.66257     17.24564        -0.001486      0.001686     -0.004541
     10.04783      5.83590     17.27769         0.002501      0.002441      0.001004
      5.02418     -7.21711     17.27834        -0.001219      0.000482      0.007932
      6.28056     -5.04115     17.27188         0.000542     -0.000893      0.003114
      7.53656     -2.86521     17.25061         0.001587     -0.000204      0.000241
      8.79270     -0.68958     17.23328         0.002183      0.002183     -0.002495
     10.04864      1.48582     17.23830        -0.000310      0.002266     -0.000751
     11.30466      3.66149     17.26033        -0.000608     -0.000466      0.000316
      6.28051     -9.39248     17.26338         0.000359      0.000868      0.003016
      7.53662     -7.21675     17.26586         0.000941     -0.001434      0.004571
      8.79254     -5.04127     17.26286         0.000660     -0.000580      0.002513
     10.04899     -2.86561     17.25904         0.000315      0.002810     -0.002991
     11.30504     -0.68985     17.25323         0.002464      0.004899     -0.004387
     12.56085      1.48575     17.25555         0.001438      0.002478     -0.002911
      7.53667    -11.56814     17.25995         0.002967      0.001986      0.001468
      8.79260     -9.39246     17.26088        -0.000062      0.002489      0.001820
     10.04895     -7.21703     17.26302        -0.001596     -0.001041      0.002204
     11.30535     -5.04140     17.26734        -0.002106     -0.000675      0.006528
     12.56104     -2.86573     17.26609        -0.000066      0.001561      0.005428
     13.81714     -0.69012     17.26176         0.000948      0.000481      0.002620
      1.25636      0.76043     17.26161        -0.000397      0.001169     -0.001963
      2.51243      2.93616     17.25905         0.000064     -0.002844     -0.003015
      3.76841      5.11178     17.26028        -0.001012     -0.001819     -0.000188
      5.02448      7.28728     17.26994         0.000327     -0.000284      0.001248
      6.28059      9.46285     17.27295         0.001761     -0.002564      0.004108
      7.53678     11.63859     17.26795        -0.000402     -0.004044      0.003659
      2.51257     -1.41512     17.27355         0.000452     -0.000477      0.000957
      3.76871      0.76059     17.25633         0.002173     -0.001876     -0.000272
      5.02470      2.93620     17.25032        -0.000872     -0.003422     -0.002289
      6.28007      5.11176     17.25081         0.000569     -0.001188     -0.000102
      7.53663      7.28726     17.27967         0.001847     -0.002706      0.001024
      8.79280      9.46274     17.28605         0.002624      0.004277      0.000710
      3.76861     -3.59074     17.28890         0.000009      0.003397     -0.002430
      5.02504     -1.41484     17.25821        -0.001216      0.000750      0.000991
      6.28088      0.76093     17.22976         0.001146     -0.007465      0.000219
      7.53630      2.93676     17.23442         0.001015     -0.001999      0.000008
      8.79340      5.11130     17.25707        -0.001262     -0.004892      0.000444
     10.04881      7.28701     17.29213        -0.002042     -0.000914     -0.001761
      5.02470     -5.76628     17.28691        -0.000191      0.001399     -0.001851
      6.28067     -3.59039     17.26460        -0.001226      0.000607     -0.002012
      7.53685     -1.41468     17.23306        -0.000952     -0.002341      0.000369
      8.79259      0.76040     17.22403        -0.001449     -0.000222     -0.000703
     10.04851      2.93609     17.24470         0.002518     -0.003313      0.000290
     11.30501      5.11161     17.27434         0.000636     -0.000688      0.002168
[...]
      8.37339     -0.55402     22.89637        -0.002473     -0.000773      0.002022
      8.84442     -0.57561     20.74332         0.003828      0.001402     -0.001013
      6.28873      0.73235     20.39024         0.002168      0.000758     -0.001591
      6.33824      1.06736     22.56914        -0.001064      0.003754      0.000095
      9.08041      1.92898     22.13852         0.001354      0.000955     -0.001682
      8.53543      2.00103     20.00308         0.004405      0.002818      0.000003
      8.85084     -3.10072     21.79206         0.001476      0.000579     -0.000695
      7.35275     -3.03536     23.40284        -0.003602      0.000584      0.002007
      6.13044      3.36546     20.91122        -0.008511      0.002611     -0.002791
      7.21515      3.65331     22.80423         0.001044      0.008426      0.003127
      5.54691     -4.25595     21.53497        -0.003829      0.004712     -0.008763
      7.28598     -4.58681     20.26134         0.002211     -0.003034     -0.001228
      7.25715     -5.37945     22.28486        -0.001706     -0.002396      0.000163
      9.41262      4.60396     21.09453        -0.001091      0.000039     -0.004087
      7.51589      5.51165     20.28822         0.000959      0.001489     -0.010426
    total drift:                               -0.011610     -0.077002     -0.046437

  FREE ENERGIE OF THE ION-ELECTRON SYSTEM (eV)
  free  energy   TOTEN  =      -876.31343149 eV

  energy  without entropy=     -876.28671414  energy(sigma->0) =     -876.30007282

 d Force = 0.8592775E-04[ 0.565E-04, 0.115E-03]  d Energy = 0.9948764E-04-0.136E-04
 d Force =-0.3158945E+01[-0.316E+01,-0.316E+01]  d Ewald  =-0.3158945E+01 0.100E-06

 Conjugate gradient step on ions:
 trial-energy change:   -0.000099  1 .order   -0.000086   -0.000115   -0.000056
  (g-gl).g = 0.274E-03      g.g   = 0.271E-03  gl.gl    = 0.427E-03
 g(Force)  = 0.271E-03   g(Stress)= 0.000E+00 ortho     = 0.221E-04
 gamma     =   0.64292
 trial     =   0.40490
 opt step  =   0.79325  (harmonic =   0.79325) maximal distance =0.00114318
 next E    =  -876.313445   (d E  =  -0.00011)

 reached required accuracy - stopping structural energy minimisation
 writing wavefunctions

 total charge

[...]

 magnetization (x)

# of ion       s       p       d       tot
    1        0.000   0.001   0.000   0.001
    2        0.000   0.001   0.000   0.001
    3        0.000   0.001   0.000   0.001
    4        0.000   0.001   0.000   0.001
    5        0.000   0.001   0.000   0.001
    6        0.000   0.001   0.000   0.001
    7        0.000   0.001   0.000   0.001
    8        0.000   0.001   0.000   0.001
    9        0.000   0.001   0.000   0.001
   10        0.000   0.001   0.000   0.001
   11        0.000   0.001   0.000   0.001
   12        0.000   0.001   0.000   0.001
   13        0.000   0.001   0.000   0.001
   14        0.000   0.001   0.000   0.001
   15        0.000   0.001   0.000   0.001
   16        0.000   0.001   0.000   0.001
   17        0.000   0.001   0.000   0.001
   18        0.000   0.001   0.000   0.001
   19        0.000   0.001   0.000   0.001
   20        0.000   0.001   0.000   0.001
   21        0.000   0.001   0.000   0.001
   22        0.000   0.001   0.000   0.001
   23        0.000   0.001   0.000   0.001
   24        0.000   0.001   0.000   0.001
   25        0.000   0.001   0.000   0.001
   26        0.000   0.001   0.000   0.001
   27        0.000   0.001   0.000   0.001
   28        0.000   0.001   0.000   0.001
   29        0.000   0.001   0.000   0.001
   30        0.000   0.001   0.000   0.001
   31        0.000   0.001   0.000   0.001
   32        0.000   0.001   0.000   0.001
   33        0.000   0.001   0.000   0.001
   34        0.000   0.001   0.000   0.001
   35        0.000   0.001   0.000   0.001
   36        0.000   0.001   0.000   0.001
   37       -0.000  -0.005   0.000  -0.005
   38       -0.000  -0.006   0.000  -0.007
   39       -0.000  -0.005   0.000  -0.005
   40       -0.000  -0.005   0.000  -0.005
   41       -0.000  -0.007   0.000  -0.007
   42       -0.000  -0.004   0.000  -0.005
   43       -0.000  -0.006   0.000  -0.006
   44       -0.000  -0.004   0.000  -0.004
   45       -0.000  -0.005   0.000  -0.006
   46       -0.000  -0.011   0.000  -0.012
   47       -0.000  -0.006   0.000  -0.006
   48       -0.000  -0.005   0.000  -0.005
   49       -0.000  -0.004   0.000  -0.004
   50       -0.000  -0.004   0.000  -0.005
   51       -0.000  -0.006   0.000  -0.006
   52       -0.000  -0.005   0.000  -0.005
   53       -0.000  -0.007   0.000  -0.007
   54       -0.000  -0.007   0.000  -0.007
   55       -0.000  -0.005   0.000  -0.005
   56       -0.000  -0.005   0.000  -0.006
   57       -0.000  -0.004   0.000  -0.004
   58       -0.000  -0.005   0.000  -0.005
   59       -0.000  -0.007   0.000  -0.007
   60       -0.000  -0.004   0.000  -0.004
[...]
   83       -0.000  -0.000   0.000  -0.000
   84        0.000   0.000   0.000   0.000
   85        0.000  -0.000   0.000  -0.000
   86        0.000   0.000   0.000   0.000
   87       -0.000  -0.000   0.000  -0.000
   88        0.000  -0.000   0.000  -0.000
   89        0.000  -0.000   0.000  -0.000
   90       -0.000  -0.000   0.000  -0.000
   91       -0.000  -0.002   0.000  -0.002
   92        0.000  -0.000   0.000  -0.000
   93       -0.000  -0.000   0.000  -0.000
   94        0.000  -0.000   0.000  -0.000
   95       -0.000  -0.000   0.000  -0.000
   96       -0.001  -0.066   0.000  -0.067
   97       -0.001  -0.062   0.000  -0.063
tot         -0.002  -0.288   0.000  -0.290