 vasp.5.4.4.18Apr17-6-g9f103f2a35 (build May 01 2020 14:57:12) complex

 executed on             LinuxIFC date 2021.01.07  13:44:23

 INCAR:
 POTCAR:    PAW_PBE B 06Sep2000
 POTCAR:    PAW_PBE N 08Apr2002

 POTCAR:    PAW_PBE B 06Sep2000
   VRHFIN =B: s2p1

   TITEL  = PAW_PBE B 06Sep2000
   POMASS =   10.811; ZVAL   =    3.000    mass and valenz
   ENMAX  =  318.614; ENMIN  =  238.960 eV

 POTCAR:    PAW_PBE N 08Apr2002
   VRHFIN =N: s2p3

   TITEL  = PAW_PBE N 08Apr2002
   POMASS =   14.001; ZVAL   =    5.000    mass and valenz
   ENMAX  =  400.000; ENMIN  =  300.000 eV

 Optimization of the real space projectors (new method)

 maximal supplied QI-value         = 22.11
 optimisation between [QCUT,QGAM] = [ 11.94, 23.88] = [ 39.92,159.67] Ry
 Optimized for a Real-space Cutoff    1.18 Angstroem

   l    n(q)    QCUT    max X(q) W(low)/X(q) W(high)/X(q)  e(spline)
   0      8    11.939    53.033    0.11E-03    0.34E-03    0.60E-07
   0      8    11.939    34.740    0.11E-03    0.34E-03    0.59E-07
   1      8    11.939    30.949    0.22E-03    0.20E-03    0.17E-06
   1      8    11.939    19.518    0.20E-03    0.18E-03    0.16E-06
 Optimization of the real space projectors (new method)

 maximal supplied QI-value         = 25.13
 optimisation between [QCUT,QGAM] = [ 11.81, 23.88] = [ 39.08,159.64] Ry
 Optimized for a Real-space Cutoff    1.41 Angstroem

   l    n(q)    QCUT    max X(q) W(low)/X(q) W(high)/X(q)  e(spline)
   0     10    11.813    79.467    0.48E-04    0.30E-04    0.67E-06
   0     10    11.813    66.151    0.47E-04    0.30E-04    0.67E-06
   1     10    11.813    20.169    0.11E-03    0.17E-03    0.11E-05
   1     10    11.813    14.454    0.11E-03    0.17E-03    0.11E-05
  PAW_PBE B 06Sep2000                   :
  PAW_PBE N 08Apr2002                   :

 POSCAR: B N
  positions in direct lattice
  velocities in cartesian coordinates

 METAGGA = SCAN     LMAXTAU =  6    LMIXTAU =  F

 ion  position               nearest neighbor table
   1  0.163  0.081  0.500-  22 1.43  21 1.43  18 1.45
   2  0.163  0.332  0.500-  23 1.43  19 1.43  18 1.45
   3  0.167  0.583  0.500-  19 1.45  24 1.45  20 1.45
   4  0.167  0.833  0.500-  21 1.45  25 1.45  20 1.45
   5  0.417  0.083  0.500-  25 1.45  26 1.46  22 1.46
   6  0.402  0.326  0.500-  22 1.43  23 1.43  17 1.58
   7  0.417  0.583  0.500-  24 1.45  27 1.46  23 1.46
   8  0.417  0.833  0.500-  28 1.45  24 1.45  25 1.45
   9  0.668  0.081  0.500-  26 1.43  28 1.43  29 1.45
  10  0.674  0.326  0.500-  26 1.43  30 1.43  17 1.58
  11  0.674  0.598  0.500-  31 1.43  27 1.43  17 1.58
  12  0.668  0.837  0.500-  27 1.43  28 1.43  32 1.45
  13  0.917  0.083  0.500-  18 1.44  32 1.44  29 1.44
  14  0.919  0.332  0.500-  30 1.43  19 1.43  29 1.45
  15  0.917  0.583  0.500-  20 1.45  30 1.46  31 1.46
  16  0.919  0.837  0.500-  31 1.43  21 1.43  32 1.45
  17  0.583  0.417  0.500-   6 1.58  11 1.58  10 1.58
  18  0.082  0.166  0.500-  13 1.44   2 1.45   1 1.45
  19  0.083  0.417  0.500-  14 1.43   2 1.43   3 1.45
  20  0.083  0.667  0.500-  15 1.45   4 1.45   3 1.45
  21  0.083  0.917  0.500-   1 1.43  16 1.43   4 1.45
  22  0.327  0.162  0.500-   1 1.43   6 1.43   5 1.46
  23  0.327  0.415  0.500-   2 1.43   6 1.43   7 1.46
  24  0.333  0.667  0.500-   7 1.45   3 1.45   8 1.45
  25  0.333  0.917  0.500-   5 1.45   4 1.45   8 1.45
  26  0.585  0.162  0.500-   9 1.43  10 1.43   5 1.46
  27  0.585  0.673  0.500-  12 1.43  11 1.43   7 1.46
  28  0.583  0.917  0.500-   9 1.43  12 1.43   8 1.45
  29  0.834  0.166  0.500-  13 1.44   9 1.45  14 1.45
  30  0.838  0.415  0.500-  14 1.43  10 1.43  15 1.46
  31  0.838  0.673  0.500-  16 1.43  11 1.43  15 1.46
  32  0.834  0.918  0.500-  13 1.44  12 1.45  16 1.45

  LATTYP: Found a hexagonal cell.
 ALAT       =    10.0487671536
 C/A-ratio  =     3.4944251219

  Lattice vectors:

 A1 = (   5.0243667045,  -8.7024973730,   0.0000000000)
 A2 = (   5.0243667045,   8.7024973730,   0.0000000000)
 A3 = (   0.0000000000,   0.0000000000,  35.1146643856)

Analysis of symmetry for initial positions (statically):
 Subroutine PRICEL returns:
 Original cell was already a primitive cell.

 Routine SETGRP: Setting up the symmetry group for a
 hexagonal supercell.

 Subroutine GETGRP returns: Found 12 space group operations
 (whereof  4 operations were pure point group operations)
 out of a pool of 24 trial point group operations.

The static configuration has the point symmetry C_2v.
 The point group associated with its full space group is D_3h.

Analysis of symmetry for dynamics (positions and initial velocities):
 Subroutine PRICEL returns:
 Original cell was already a primitive cell.

[...]

The dynamic configuration has the point symmetry C_2v.
 The point group associated with its full space group is D_3h.

Analysis of constrained symmetry for selective dynamics:
 Subroutine PRICEL returns:
 Original cell was already a primitive cell.

[...]

The constrained configuration has the point symmetry C_2v.
 The point group associated with its full space group is D_3h.

Analysis of structural, dynamic, and magnetic symmetry:
 Subroutine PRICEL returns:
 Original cell was already a primitive cell.

 Routine SETGRP: Setting up the symmetry group for a
 hexagonal supercell.

 Subroutine GETGRP returns: Found 12 space group operations
 (whereof  4 operations were pure point group operations)
 out of a pool of 24 trial point group operations.

The magnetic configuration has the point symmetry C_2v.
 The point group associated with its full space group is D_3h.

 Subroutine INISYM returns: Found 12 space group operations
 (whereof  4 operations are pure point group operations),
 and found     1 'primitive' translations

 KPOINTS: K-Point Grid

Automatic generation of k-mesh.
Space group operators:
 irot       det(A)        alpha          n_x          n_y          n_z        tau_x        tau_y        tau_z
    1     1.000000     0.000000     1.000000     0.000000     0.000000     0.000000     0.000000     0.000000
    2    -1.000000   180.000000     0.000000     0.000000     1.000000     0.000000     0.000000     0.000000
    3     1.000000   180.000000     0.000000     1.000000     0.000000     0.000000     0.000000     0.000000
    4    -1.000000   180.000000     1.000000     0.000000     0.000000     0.000000     0.000000     0.000000
    5    -1.000000    60.000000     0.000000     0.000000    -1.000000     0.750001     0.000001     0.000000
    6     1.000000   120.000000     0.000000     0.000000    -1.000000     0.000001     0.250000     0.000000
    7     1.000000   120.000000     0.000000     0.000000     1.000000     0.750001     0.000001     0.000000
    8    -1.000000    60.000000     0.000000     0.000000     1.000000     0.000001     0.250000     0.000000
    9    -1.000000   180.000000     0.500002    -0.866024     0.000000     0.750001     0.000000     0.000000
   10    -1.000000   180.000000    -0.500002    -0.866024     0.000000     0.000000     0.250000     0.000000
   11     1.000000   180.000000     0.866026     0.499998     0.000000     0.750001     0.000000     0.000000
   12     1.000000   180.000000     0.866026    -0.499998     0.000000     0.000000     0.250000     0.000000

 Subroutine IBZKPT returns following result:

 Found      6 irreducible k-points:

 Following reciprocal coordinates:
            Coordinates               Weight
  0.125000  0.125000  0.000000     48.000000
  0.375000  0.125000  0.000000     96.000000
 -0.375000  0.125000  0.000000     96.000000
 -0.125000  0.125000  0.000000     48.000000
  0.375000  0.375000  0.000000     48.000000
 -0.375000  0.375000  0.000000     48.000000

 Following cartesian coordinates:
            Coordinates               Weight
  0.024879  0.000000  0.000000     48.000000
  0.049758 -0.014364  0.000000     96.000000
 -0.024879  0.028727  0.000000     96.000000
  0.000000  0.014364  0.000000     48.000000
  0.074636  0.000000  0.000000     48.000000
  0.000000  0.043091  0.000000     48.000000

 SYSTEM =  SiC
 POSCAR =  B N

 Startparameter for this run:
   NWRITE =      2    write-flag & timer
   PREC   = accura    normal or accurate (medium, high low for compatibility)
   ISTART =      1    job   : 0-new  1-cont  2-samecut
   ICHARG =      0    charge: 1-file 2-atom 10-const
   ISPIN  =      2    spin polarized calculation?
   LNONCOLLINEAR =      F non collinear calculations
   LSORBIT =      F    spin-orbit coupling
   INIWAV =      1    electr: 0-lowe 1-rand  2-diag
   LASPH  =      T    aspherical Exc in radial PAW
   METAGGA=      F    non-selfconsistent MetaGGA calc.

 Electronic Relaxation 1
   ENCUT  =  550.0 eV  40.42 Ry    6.36 a.u.  19.22 19.22 67.15*2*pi/ulx,y,z
   ENINI  =  550.0     initial cutoff
   ENAUG  =  627.1 eV  augmentation charge cutoff
   NELM   =    100;   NELMIN=  2; NELMDL=  0     # of ELM steps
   EDIFF  = 0.1E-04   stopping-criterion for ELM
   LREAL  =      T    real-space projection
   NLSPLINE    = F    spline interpolate recip. space projectors
   LCOMPAT=      F    compatible to vasp.4.4
   GGA_COMPAT  = T    GGA compatible to vasp.4.4-vasp.4.6
   LMAXPAW     = -100 max onsite density
   LMAXMIX     =    2 max onsite mixed and CHGCAR
   VOSKOWN=      0    Vosko Wilk Nusair interpolation
   ROPT   =   -0.00025  -0.00025
 Ionic relaxation
   EDIFFG = -.2E-01   stopping-criterion for IOM
   NSW    =    500    number of steps for IOM
   NBLOCK =      1;   KBLOCK =    500    inner block; outer block
   IBRION =      2    ionic relax: 0-MD 1-quasi-New 2-CG
   NFREE  =      1    steps in history (QN), initial steepest desc. (CG)
   ISIF   =      2    stress and relaxation
   IWAVPR =     11    prediction:  0-non 1-charg 2-wave 3-comb
   ISYM   =      2    0-nonsym 1-usesym 2-fastsym
   LCORR  =      T    Harris-Foulkes like correction to forces

   POTIM  = 0.5000    time-step for ionic-motion
   TEIN   =    0.0    initial temperature
   TEBEG  =    0.0;   TEEND  =   0.0 temperature during run
   SMASS  =  -3.00    Nose mass-parameter (am)
   estimated Nose-frequenzy (Omega)   =  0.10E-29 period in steps =****** mass=  -0.231E-26a.u.
   SCALEE = 1.0000    scale energy and forces
   NPACO  =    256;   APACO  = 16.0  distance and # of slots for P.C.
   PSTRESS=    0.0 pullay stress

  Mass of Ions in am
   POMASS =  10.81 14.00
  Ionic Valenz
   ZVAL   =   3.00  5.00
  Atomic Wigner-Seitz radii
  virtual crystal weights
   VCA    =   1.00  1.00
   NELECT =     126.0000    total number of electrons
   NUPDOWN=      -1.0000    fix difference up-down

 DOS related values:
   EMIN   =  10.00;   EMAX   =-10.00  energy-range for DOS
   EFERMI =   0.00
   ISMEAR =     0;   SIGMA  =   0.05  broadening in eV -4-tet -1-fermi 0-gaus

 Electronic relaxation 2 (details)
   IALGO  =     68    algorithm
   LDIAG  =      T    sub-space diagonalisation (order eigenvalues)
   LSUBROT=      F    optimize rotation matrix (better conditioning)
   TURBO    =      0    0=normal 1=particle mesh
   IRESTART =      0    0=no restart 2=restart with 2 vectors
   NREBOOT  =      0    no. of reboots
   NMIN     =      0    reboot dimension
   EREF     =   0.00    reference energy to select bands
   IMIX   =      4    mixing-type and parameters
[...]
 d Force = 0.9751952E+00[ 0.961E+00, 0.989E+00]  d Ewald  = 0.9752033E+00-0.811E-05

[...]

 d Force = 0.3224626E-04[-0.250E-03, 0.315E-03]  d Energy = 0.2807485E-04 0.417E-05
 d Force =-0.3868404E+00[-0.388E+00,-0.386E+00]  d Ewald  =-0.3868416E+00 0.117E-05

 Conjugate gradient step on ions:
 trial-energy change:   -0.000028  1 .order   -0.000032   -0.000315    0.000250
  (g-gl).g = 0.384E-03      g.g   = 0.370E-03  gl.gl    = 0.347E-02
 g(Force)  = 0.370E-03   g(Stress)= 0.000E+00 ortho     =-0.140E-04
 gamma     =   0.11067
 trial     =   0.85424
 opt step  =   0.47585  (harmonic =   0.47585) maximal distance =0.00070887
 next E    =  -304.630579   (d E  =  -0.00009)

 real space projection operators:
  max/ min on nodes  :       1728.88       1603.06

[...]

 eigenvalue-minimisations  :  2292
 total energy-change (2. order) :-0.8809424E-05  (-0.1264698E-04)
 number of electron     125.9999990 magnetization      -0.0000000
 augmentation part        3.3875688 magnetization       0.0000001

 Broyden mixing:
  rms(total) = 0.10307E-02    rms(broyden)= 0.10304E-02
  rms(prec ) = 0.10626E-02
  weight for this iteration     100.00

 eigenvalues of (default mixing * dielectric matrix)
  average eigenvalue GAMMA=   1.0350
  1.0350

[...]

--------------------------------------- Iteration      6(   3)  ---------------------------------------

 eigenvalue-minimisations  :  1547
 total energy-change (2. order) : 0.1387978E-05  (-0.7046584E-06)
 number of electron     125.9999990 magnetization      -0.0000000
 augmentation part        3.3875688 magnetization       0.0000001

 Free energy of the ion-electron system (eV)
  alpha Z        PSCENC =        29.25924521
  Ewald energy   TEWEN  =     39688.50695842
  -Hartree energ DENC   =    -44109.02974452
  -exchange      EXHF   =         0.00000000
  -V(xc)+E(xc)   XCENC  =       539.57007310
  PAW double counting   =     15619.73412212   -15673.86184965
  entropy T*S    EENTRO =        -0.00000000
  eigenvalues    EBANDS =     -1672.85697546
  atomic energy  EATOM  =      5177.93391500
  Solvation  Ediel_sol  =        96.11366946
  free energy    TOTEN  =      -304.63058634 eV

  energy without entropy =     -304.63058634  energy(sigma->0) =     -304.63058634

 average (electrostatic) potential at core
  the test charge radii are     0.7672  0.7089
  (the norm of the test charge is              1.0000)
       1 -38.3058       2 -38.3058       3 -38.5449       4 -38.5449       5 -38.5694
       6 -37.0078       7 -38.5694       8 -38.5449       9 -38.3058      10 -37.0078
      11 -37.0077      12 -38.3058      13 -38.3757      14 -38.3058      15 -38.5694
      16 -38.3058      17 -35.3429      18 -76.0155      19 -75.9962      20 -76.0972
      21 -75.9962      22 -75.9163      23 -75.9164      24 -76.0972      25 -76.0972
      26 -75.9164      27 -75.9163      28 -75.9962      29 -76.0155      30 -75.9163
      31 -75.9163      32 -76.0155

 E-fermi :  -5.0639     XC(G=0):  -1.1924     alpha+bet : -1.0389

[...]

 spin component 2

[...]

 k-point     6 :      -0.3750    0.3750    0.0000
  band No.  band energies     occupation
      1     -24.5336      1.00000
      2     -24.2028      1.00000
      3     -23.8195      1.00000
      4     -23.5495      1.00000
      5     -22.9873      1.00000
      6     -22.8629      1.00000
      7     -22.5024      1.00000
      8     -22.4713      1.00000
      9     -22.2380      1.00000
     10     -21.8463      1.00000
     11     -21.7233      1.00000
     12     -21.6290      1.00000
     13     -21.5703      1.00000
     14     -21.2675      1.00000
     15     -21.1828      1.00000
     16     -15.1428      1.00000
     17     -14.8840      1.00000
     18     -14.7836      1.00000
     19     -14.5895      1.00000
     20     -14.4444      1.00000
     21     -14.1839      1.00000
     22     -14.0395      1.00000
     23     -13.8859      1.00000
     24     -13.1112      1.00000
     25     -13.0821      1.00000
     26     -12.7494      1.00000
     27     -12.7003      1.00000
     28     -12.4576      1.00000
     29     -11.9321      1.00000
     30     -11.3999      1.00000
     31     -11.3401      1.00000
     32     -11.2584      1.00000
     33     -11.1530      1.00000
     34     -10.8216      1.00000
     35     -10.7144      1.00000
     36     -10.7131      1.00000
     37     -10.7097      1.00000
     38     -10.4342      1.00000
     39     -10.2377      1.00000
     40     -10.1899      1.00000
     41     -10.1102      1.00000
     42      -9.9281      1.00000
     43      -9.8082      1.00000
     44      -9.7669      1.00000
     45      -9.4842      1.00000
     46      -9.1053      1.00000
     47      -9.0446      1.00000
     48      -8.8850      1.00000
     49      -8.8639      1.00000
     50      -8.7095      1.00000
     51      -8.4126      1.00000
     52      -8.3476      1.00000
     53      -8.1242      1.00000
     54      -8.0486      1.00000
     55      -7.9704      1.00000
     56      -7.4936      1.00000
     57      -7.1305      1.00000
     58      -7.1043      1.00000
     59      -6.9962      1.00000
     60      -6.5442      1.00000
[...]
     82       0.9004      0.00000
     83       1.0032      0.00000
     84       1.0263      0.00000
     85       1.1920      0.00000
     86       1.2824      0.00000
     87       1.3005      0.00000
     88       1.3744      0.00000
     89       1.3748      0.00000
     90       1.5011      0.00000
     91       1.5803      0.00000
     92       1.6100      0.00000
     93       1.6156      0.00000
     94       1.6383      0.00000
     95       1.6864      0.00000
     96       1.7493      0.00000

[...]

 soft charge-density along one line, spin component           2
         0         1         2         3         4         5         6         7         8         9
 total charge-density along one line

------------------------ aborting loop because EDIFF is reached ----------------------------------------

[...]

  FORCE on cell =-STRESS in cart. coord.  units (eV):
  Direction    XX          YY          ZZ          XY          YZ          ZX
  Alpha Z    29.25925    29.25925    29.25925
  Ewald   43876.76124 43876.75622-48065.01555     0.00000    -0.00000     0.00000
  Hartree 43632.57778 43632.57816-43156.13670     0.00011    -0.00000     0.00000
  E(xc)    -501.64577  -501.64574  -508.88975     0.02566     0.00003    -0.00001
  Local  -88827.75102-88827.75804 89689.01719     0.00172     0.00002    -0.00003
  n-local  -229.19411  -229.19325  -218.08415    -0.05586    -0.00000     0.00000
  augment    16.17161    16.17148    18.58298     0.00002    -0.00001     0.00001
  Kinetic  2014.68017  2014.67595  2210.93386     0.89874     0.00004    -0.00001
  Fock        0.00000     0.00000     0.00000     0.00000     0.00000     0.00000
  Total      10.85154    10.85164    -0.33287     0.00000     0.00000     0.00000
  in kB       5.66185     5.66190    -0.17368     0.00000     0.00000     0.00000

 VOLUME and BASIS-vectors are now :
  energy-cutoff  :      550.00
  volume of cell :     3070.74
      direct lattice vectors                 reciprocal lattice vectors
     5.024366704 -8.702497373  0.000000000     0.099515029 -0.057454772  0.000000000
     5.024366704  8.702497373  0.000000000     0.099515029  0.057454772  0.000000000
     0.000000000  0.000000000 35.114664386     0.000000000  0.000000000  0.028478131

  length of vectors
    10.048767154 10.048767154 35.114664386     0.114909929  0.114909929  0.028478131

 FORCES acting on ions
    electron-ion (+dipol)            ewald-force                    non-local-force                 convergence-correction
   -.455E+01 -.236E+01 -.101E-04   0.474E+01 0.193E+01 -.109E-18   -.177E+00 0.433E+00 -.265E-22   0.524E-04 -.213E-02 0.115E-08
   -.234E+00 0.512E+01 0.449E-04   0.702E+00 -.507E+01 -.103E-18   -.464E+00 -.631E-01 -.265E-22   0.187E-02 0.102E-02 0.953E-08
   -.133E+01 -.766E+00 0.216E-04   0.128E+01 0.742E+00 -.260E-18   0.145E-01 0.837E-02 0.000E+00   0.679E-03 0.392E-03 0.368E-08
   0.118E-03 0.153E+01 -.401E-04   0.399E-11 -.148E+01 -.117E-18   -.217E-18 -.167E-01 0.000E+00   -.110E-07 -.784E-03 -.524E-08
   -.182E+02 -.105E+02 0.348E-04   0.183E+02 0.106E+02 -.849E-19   -.141E+00 -.812E-01 -.265E-22   -.209E-02 -.121E-02 0.725E-08
   -.480E+02 0.277E+02 0.114E-03   0.528E+02 -.305E+02 -.161E-18   -.479E+01 0.277E+01 0.000E+00   -.181E-02 0.105E-02 0.637E-08
   0.166E-03 0.210E+02 -.551E-04   -.114E-12 -.212E+02 -.697E-19   0.000E+00 0.162E+00 0.000E+00   0.437E-07 0.241E-02 -.132E-07
   0.133E+01 -.766E+00 0.190E-04   -.128E+01 0.742E+00 0.353E-19   -.145E-01 0.837E-02 0.000E+00   -.679E-03 0.392E-03 0.156E-08
   -.432E+01 -.276E+01 0.639E-05   0.404E+01 0.315E+01 0.173E-18   0.287E+00 -.370E+00 0.000E+00   -.182E-02 0.111E-02 -.783E-08
   0.242E-03 -.554E+02 -.150E-03   0.179E-10 0.610E+02 -.262E-19   0.000E+00 -.554E+01 0.000E+00   0.281E-07 -.209E-02 -.106E-07
   0.480E+02 0.277E+02 0.376E-04   -.528E+02 -.305E+02 -.287E-19   0.479E+01 0.277E+01 0.000E+00   0.181E-02 0.105E-02 0.424E-08
   0.234E+00 0.512E+01 0.143E-04   -.702E+00 -.507E+01 0.770E-19   0.464E+00 -.631E-01 0.000E+00   -.187E-02 0.102E-02 0.738E-08
   0.905E-04 -.455E-03 -.293E-06   0.411E-11 0.753E-03 0.816E-19   -.767E-19 0.171E-17 0.000E+00   0.276E-07 0.305E-07 -.324E-11
   0.432E+01 -.276E+01 -.415E-04   -.404E+01 0.315E+01 0.149E-18   -.287E+00 -.370E+00 0.000E+00   0.182E-02 0.111E-02 -.572E-08
   0.182E+02 -.105E+02 0.219E-04   -.183E+02 0.106E+02 0.155E-18   0.141E+00 -.812E-01 -.265E-22   0.209E-02 -.121E-02 0.598E-08
   0.455E+01 -.236E+01 -.144E-04   -.474E+01 0.193E+01 0.849E-19   0.177E+00 0.433E+00 0.000E+00   -.524E-04 -.213E-02 -.451E-08
   -.753E-04 0.724E-04 0.985E-07   0.381E-11 -.386E-03 0.857E-19   -.191E-18 0.729E-18 0.000E+00   0.283E-07 0.360E-07 0.385E-11
   -.741E+01 0.428E+01 0.131E-04   0.793E+01 -.458E+01 0.345E-19   -.535E+00 0.309E+00 0.238E-21   0.548E-02 -.317E-02 0.328E-07
   -.592E+01 -.342E+01 0.704E-04   0.647E+01 0.373E+01 -.150E-19   -.612E+00 -.353E+00 0.000E+00   0.770E-02 0.445E-02 0.176E-07
   0.414E+01 -.239E+01 0.234E-04   -.443E+01 0.256E+01 -.149E-18   0.235E+00 -.136E+00 0.000E+00   0.456E-02 -.263E-02 0.132E-07
   -.144E-02 0.684E+01 -.576E-04   0.403E-11 -.747E+01 0.957E-19   0.000E+00 0.706E+00 0.265E-22   0.223E-07 -.890E-02 -.353E-07
   -.350E+02 0.127E+02 -.197E-04   0.365E+02 -.134E+02 -.238E-18   -.159E+01 0.758E+00 0.662E-23   -.654E-02 -.231E-02 0.429E-07
   -.285E+02 0.240E+02 0.440E-04   0.298E+02 -.250E+02 -.292E-18   -.145E+01 0.998E+00 0.000E+00   -.127E-02 0.682E-02 0.119E-07
   -.141E-02 0.479E+01 -.847E-04   -.290E-11 -.512E+01 -.308E-18   0.000E+00 0.271E+00 0.212E-21   0.478E-07 0.527E-02 -.210E-07
   -.415E+01 -.239E+01 0.616E-04   0.443E+01 0.256E+01 -.356E-18   -.235E+00 -.136E+00 -.212E-21   -.456E-02 -.263E-02 0.777E-08
   -.654E+01 -.366E+02 0.777E-06   0.668E+01 0.383E+02 0.124E-18   -.138E+00 -.176E+01 0.000E+00   -.527E-02 -.451E-02 -.357E-07
   0.285E+02 0.240E+02 -.410E-04   -.298E+02 -.250E+02 0.395E-19   0.145E+01 0.998E+00 -.212E-21   0.127E-02 0.682E-02 -.920E-08
   0.592E+01 -.342E+01 -.131E-04   -.647E+01 0.373E+01 0.194E-18   0.612E+00 -.353E+00 -.106E-21   -.771E-02 0.445E-02 0.178E-07
   -.142E-02 -.856E+01 -.683E-04   -.391E-11 0.916E+01 0.277E-18   -.347E-17 -.618E+00 0.000E+00   0.211E-07 0.633E-02 -.417E-07
   0.654E+01 -.366E+02 -.154E-04   -.668E+01 0.383E+02 0.293E-18   0.138E+00 -.176E+01 -.529E-22   0.527E-02 -.451E-02 -.298E-07
   0.350E+02 0.127E+02 0.311E-04   -.365E+02 -.134E+02 0.180E-18   0.159E+01 0.758E+00 0.000E+00   0.654E-02 -.231E-02 0.201E-07
   0.741E+01 0.428E+01 0.553E-04   -.793E+01 -.458E+01 0.239E-18   0.535E+00 0.309E+00 0.000E+00   -.548E-02 -.317E-02 0.881E-08
   -.232E-01 -.152E-01 0.508E-05   0.293E-13 0.924E-13 0.000E+00   -.333E-15 0.278E-15 -.205E-21   -.344E-07 0.163E-06 0.119E-11

 POSITION                                       TOTAL-FORCE (eV/Angst)
      1.22550     -0.71789     17.55733        -0.006722     -0.002607      0.000000
      2.49055      1.47325     17.55733        -0.001103      0.007125     -0.000000
      3.76726      3.62545     17.55733         0.009602      0.005544      0.000000
      5.02437      5.80285     17.55733        -0.000000     -0.011087     -0.000000
      2.51076     -2.90166     17.55733        -0.007734     -0.004465      0.000000
      3.65303     -0.65867     17.55733         0.006752     -0.003898      0.000000
      5.02437      1.45207     17.55733        -0.000000      0.008930      0.000000
      6.28149      3.62545     17.55733        -0.009602      0.005544      0.000000
      3.75932     -5.10661     17.55733        -0.005619     -0.004518      0.000000
      5.02437     -3.03391     17.55733        -0.000000      0.007796     -0.000000
      6.39571     -0.65867     17.55733        -0.006752     -0.003898     -0.000000
      7.55819      1.47325     17.55733         0.001103      0.007125      0.000000
      5.02437     -7.25208     17.55733        -0.000000      0.000000      0.000000
      6.28942     -5.10661     17.55733         0.005619     -0.004518     -0.000000
      7.53799     -2.90166     17.55733         0.007734     -0.004465      0.000000
      8.82324     -0.71789     17.55733         0.006722     -0.002607      0.000000
      5.02437     -1.45042     17.55733        -0.000000      0.000000      0.000000
      1.24632      0.73085     17.55733        -0.007808      0.004508      0.000000
      2.51394      2.90184     17.55733        -0.006149     -0.003550      0.000000
      3.76824      5.07648     17.55733        -0.003852      0.002224      0.000000
      5.02437      7.25006     17.55733        -0.000000      0.007100      0.000000
      2.45519     -1.43782     17.55733        -0.008496     -0.005364      0.000000
      3.72888      0.76828     17.55733         0.000397      0.010039      0.000000
      5.02437      2.90079     17.55733        -0.000000     -0.004447      0.000000
      6.28050      5.07648     17.55733         0.003852      0.002224      0.000000
      3.75068     -3.68170     17.55733        -0.008893     -0.004676      0.000000
      6.31987      0.76828     17.55733        -0.000397      0.010039     -0.000000
      7.53481      2.90184     17.55733         0.006149     -0.003550     -0.000000
      5.02437     -5.81295     17.55733        -0.000000     -0.009016      0.000000
      6.29806     -3.68170     17.55733         0.008893     -0.004676      0.000000
      7.59355     -1.43782     17.55733         0.008496     -0.005364     -0.000000
      8.80242      0.73085     17.55733         0.007808      0.004508     -0.000000
    total drift:                               -0.023214     -0.015169      0.000005

  FREE ENERGIE OF THE ION-ELECTRON SYSTEM (eV)
  free  energy   TOTEN  =      -304.63058634 eV

  energy  without entropy=     -304.63058634  energy(sigma->0) =     -304.63058634

 d Force = 0.5999727E-04[ 0.908E-05, 0.111E-03]  d Energy = 0.6655388E-04-0.656E-05
 d Force = 0.1716540E+00[ 0.171E+00, 0.172E+00]  d Ewald  = 0.1716540E+00-0.137E-07

 reached required accuracy - stopping structural energy minimisation
 writing wavefunctions

 total charge

[...]

 magnetization (x)

# of ion       s       p       d       tot
    1       -0.000   0.000   0.000   0.000
    2       -0.000   0.000   0.000   0.000
    3       -0.000   0.000   0.000   0.000
    4       -0.000  -0.000   0.000  -0.000
    5       -0.000   0.000   0.000   0.000
    6       -0.000  -0.000   0.000  -0.000
    7       -0.000   0.000   0.000   0.000
    8       -0.000  -0.000   0.000  -0.000
    9       -0.000   0.000   0.000   0.000
   10       -0.000  -0.000   0.000  -0.000
   11       -0.000  -0.000   0.000  -0.000
   12       -0.000   0.000   0.000   0.000
   13       -0.000   0.000   0.000  -0.000
   14       -0.000   0.000   0.000   0.000
   15       -0.000   0.000   0.000   0.000
   16       -0.000   0.000   0.000   0.000
   17        0.000   0.000   0.000   0.000
   18        0.000  -0.000   0.000  -0.000
   19        0.000  -0.000   0.000   0.000
   20       -0.000   0.000   0.000   0.000
   21        0.000  -0.000   0.000  -0.000
   22        0.000  -0.000   0.000   0.000
   23        0.000  -0.000   0.000   0.000
   24       -0.000   0.000   0.000   0.000
   25       -0.000   0.000   0.000   0.000
   26        0.000  -0.000   0.000   0.000
   27        0.000  -0.000   0.000  -0.000
   28        0.000   0.000   0.000   0.000
   29        0.000  -0.000   0.000  -0.000
   30        0.000  -0.000   0.000  -0.000
   31        0.000  -0.000   0.000  -0.000
   32        0.000  -0.000   0.000  -0.000
tot         -0.000  -0.000   0.000  -0.000