 vasp.5.4.4.18Apr17-6-g9f103f2a35 (build May 01 2020 14:57:12) complex

 executed on             LinuxIFC date 2021.06.17  21:07:57

 INCAR:
 POTCAR:    PAW_PBE B 06Sep2000
 POTCAR:    PAW_PBE H 15Jun2001
 POTCAR:    PAW_PBE N 08Apr2002
 POTCAR:    PAW_PBE O 08Apr2002

 POTCAR:    PAW_PBE B 06Sep2000
   VRHFIN =B: s2p1

   TITEL  = PAW_PBE B 06Sep2000
   POMASS =   10.811; ZVAL   =    3.000    mass and valenz
   ENMAX  =  318.614; ENMIN  =  238.960 eV

 POTCAR:    PAW_PBE H 15Jun2001
   VRHFIN =H: ultrasoft test

   TITEL  = PAW_PBE H 15Jun2001
   POMASS =    1.000; ZVAL   =    1.000    mass and valenz
   ENMAX  =  250.000; ENMIN  =  200.000 eV

 POTCAR:    PAW_PBE N 08Apr2002
   VRHFIN =N: s2p3

   TITEL  = PAW_PBE N 08Apr2002
   POMASS =   14.001; ZVAL   =    5.000    mass and valenz
   ENMAX  =  400.000; ENMIN  =  300.000 eV

 POTCAR:    PAW_PBE O 08Apr2002
   VRHFIN =O: s2p4

   TITEL  = PAW_PBE O 08Apr2002
   POMASS =   16.000; ZVAL   =    6.000    mass and valenz
   ENMAX  =  400.000; ENMIN  =  300.000 eV

 Optimization of the real space projectors (new method)

 maximal supplied QI-value         = 22.11
 optimisation between [QCUT,QGAM] = [ 11.94, 23.88] = [ 39.92,159.67] Ry
 Optimized for a Real-space Cutoff    1.18 Angstroem

   l    n(q)    QCUT    max X(q) W(low)/X(q) W(high)/X(q)  e(spline)
   0      8    11.939    53.033    0.11E-03    0.34E-03    0.60E-07
   0      8    11.939    34.740    0.11E-03    0.34E-03    0.59E-07
   1      8    11.939    30.949    0.22E-03    0.20E-03    0.17E-06
   1      8    11.939    19.518    0.20E-03    0.18E-03    0.16E-06
 Optimization of the real space projectors (new method)

[...]

   l    n(q)    QCUT    max X(q) W(low)/X(q) W(high)/X(q)  e(spline)
   0     10    11.813    79.467    0.48E-04    0.30E-04    0.67E-06
   0     10    11.813    66.151    0.47E-04    0.30E-04    0.67E-06
   1     10    11.813    20.169    0.11E-03    0.17E-03    0.11E-05
   1     10    11.813    14.454    0.11E-03    0.17E-03    0.11E-05
 Optimization of the real space projectors (new method)

 maximal supplied QI-value         = 24.76
 optimisation between [QCUT,QGAM] = [ 11.88, 24.01] = [ 39.54,161.47] Ry
 Optimized for a Real-space Cutoff    1.18 Angstroem

   l    n(q)    QCUT    max X(q) W(low)/X(q) W(high)/X(q)  e(spline)
   0      8    11.883    20.381    0.86E-04    0.11E-03    0.31E-06
   0      8    11.883    15.268    0.94E-04    0.12E-03    0.33E-06
   1      8    11.883     5.964    0.19E-03    0.18E-04    0.33E-06
   1      8    11.883     5.382    0.17E-03    0.20E-04    0.29E-06
  PAW_PBE B 06Sep2000                   :
  PAW_PBE H 15Jun2001                   :
  PAW_PBE N 08Apr2002                   :
  PAW_PBE O 08Apr2002                   :

 POSCAR: B H N O
  positions in direct lattice
  velocities in cartesian coordinates

 METAGGA = SCAN     LMAXTAU =  6    LMIXTAU =  F

 ion  position               nearest neighbor table
   1  0.321  0.496  0.389-  45 1.38  27 1.41  37 1.45
   2  0.324  0.499  0.444-  37 1.45  28 1.45  38 1.45
   3  0.324  0.499  0.500-  38 1.45  39 1.45  29 1.45
   4  0.324  0.499  0.556-  40 1.45  30 1.45  39 1.45
   5  0.321  0.496  0.611-  47 1.38  31 1.41  40 1.45
   6  0.821  0.505  0.389-  46 1.38  32 1.41  41 1.45
   7  0.824  0.501  0.444-  41 1.45  33 1.45  42 1.45
   8  0.824  0.500  0.500-  42 1.45  43 1.45  34 1.45
   9  0.824  0.501  0.556-  44 1.45  35 1.45  43 1.45
  10  0.821  0.505  0.611-  48 1.38  36 1.41  44 1.45
  11  0.073  0.502  0.417-  27 1.42  28 1.45  41 1.45
  12  0.074  0.500  0.472-  28 1.44  29 1.44  42 1.45
  13  0.074  0.500  0.528-  30 1.44  29 1.44  43 1.45
  14  0.073  0.502  0.583-  31 1.42  30 1.45  44 1.45
  15  0.573  0.498  0.417-  32 1.42  33 1.45  37 1.45
  16  0.574  0.499  0.472-  33 1.44  34 1.44  38 1.45
  17  0.574  0.499  0.528-  35 1.44  34 1.44  39 1.45
  18  0.573  0.498  0.583-  36 1.42  35 1.45  40 1.45
  19  0.098  0.502  0.371-  27 1.01
  20  0.098  0.502  0.629-  31 1.01
  21  0.598  0.499  0.371-  32 1.01
  22  0.598  0.499  0.629-  36 1.01
  23  0.324  0.491  0.345-  45 0.96
  24  0.824  0.513  0.345-  46 0.96
  25  0.324  0.491  0.655-  47 0.96
  26  0.824  0.513  0.655-  48 0.96
  27  0.159  0.501  0.390-  19 1.01   1 1.41  11 1.42
  28  0.157  0.500  0.445-  12 1.44  11 1.45   2 1.45
  29  0.157  0.500  0.500-  13 1.44  12 1.44   3 1.45
  30  0.157  0.500  0.555-  13 1.44  14 1.45   4 1.45
  31  0.159  0.501  0.610-  20 1.01   5 1.41  14 1.42
  32  0.659  0.500  0.390-  21 1.01   6 1.41  15 1.42
  33  0.657  0.499  0.445-  16 1.44  15 1.45   7 1.45
  34  0.657  0.500  0.500-  16 1.44  17 1.44   8 1.45
  35  0.657  0.499  0.555-  17 1.44  18 1.45   9 1.45
  36  0.659  0.500  0.610-  22 1.01  10 1.41  18 1.42
  37  0.407  0.496  0.417-  15 1.45   2 1.45   1 1.45
  38  0.407  0.499  0.472-   3 1.45   2 1.45  16 1.45
  39  0.407  0.499  0.528-   3 1.45   4 1.45  17 1.45
  40  0.407  0.496  0.583-  18 1.45   4 1.45   5 1.45
  41  0.907  0.504  0.417-  11 1.45   7 1.45   6 1.45
  42  0.907  0.500  0.472-   8 1.45   7 1.45  12 1.45
  43  0.907  0.500  0.528-   8 1.45   9 1.45  13 1.45
  44  0.907  0.504  0.583-  14 1.45   9 1.45  10 1.45
  45  0.393  0.491  0.362-  23 0.96   1 1.38
  46  0.893  0.512  0.362-  24 0.96   6 1.38
  47  0.393  0.491  0.638-  25 0.96   5 1.38
  48  0.893  0.512  0.638-  26 0.96  10 1.38

  LATTYP: Found a simple orthorhombic cell.
 ALAT       =     8.7025000000
 B/A-ratio  =     1.7236426314
 C/A-ratio  =     5.1709278943

  Lattice vectors:

 A1 = (   0.0000000000,  -8.7025000000,   0.0000000000)
 A2 = (  15.0000000000,   0.0000000000,   0.0000000000)
 A3 = (   0.0000000000,   0.0000000000,  45.0000000000)

Analysis of symmetry for initial positions (statically):
 Subroutine PRICEL returns:
 Original cell was already a primitive cell.

 Routine SETGRP: Setting up the symmetry group for a
 simple orthorhombic supercell.

 Subroutine GETGRP returns: Found  2 space group operations
 (whereof  2 operations were pure point group operations)
 out of a pool of  8 trial point group operations.

The static configuration has the point symmetry C_1h.

Analysis of symmetry for dynamics (positions and initial velocities):
 Subroutine PRICEL returns:
 Original cell was already a primitive cell.

[...]

The dynamic configuration has the point symmetry C_1h.

Analysis of constrained symmetry for selective dynamics:
 Subroutine PRICEL returns:
 Original cell was already a primitive cell.

[...]

The constrained configuration has the point symmetry C_1h.

Analysis of structural, dynamic, and magnetic symmetry:
 Subroutine PRICEL returns:
 Original cell was already a primitive cell.

 Routine SETGRP: Setting up the symmetry group for a
 simple orthorhombic supercell.

 Subroutine GETGRP returns: Found  2 space group operations
 (whereof  2 operations were pure point group operations)
 out of a pool of  8 trial point group operations.

The magnetic configuration has the point symmetry C_1h.

 Subroutine INISYM returns: Found  2 space group operations
 (whereof  2 operations are pure point group operations),
 and found     1 'primitive' translations

 KPOINTS: K-Point Grid

Automatic generation of k-mesh.
Space group operators:
 irot       det(A)        alpha          n_x          n_y          n_z        tau_x        tau_y        tau_z
    1     1.000000     0.000001     1.000000     0.000000     0.000000     0.000000     0.000000     0.000000
    2    -1.000000   180.000000     0.000000     0.000000     1.000000     0.000000     0.000000     0.000000

 Subroutine IBZKPT returns following result:

 Found      8 irreducible k-points:

 Following reciprocal coordinates:
            Coordinates               Weight
  0.125000  0.125000  0.000000      2.000000
  0.375000  0.125000  0.000000      2.000000
 -0.375000  0.125000  0.000000      2.000000
 -0.125000  0.125000  0.000000      2.000000
  0.125000  0.375000  0.000000      2.000000
  0.375000  0.375000  0.000000      2.000000
 -0.375000  0.375000  0.000000      2.000000
 -0.125000  0.375000  0.000000      2.000000

 Following cartesian coordinates:
            Coordinates               Weight
  0.008333 -0.014364  0.000000      2.000000
  0.008333 -0.043091  0.000000      2.000000
  0.008333  0.043091  0.000000      2.000000
  0.008333  0.014364  0.000000      2.000000
  0.025000 -0.014364  0.000000      2.000000
  0.025000 -0.043091  0.000000      2.000000
  0.025000  0.043091  0.000000      2.000000
  0.025000  0.014364  0.000000      2.000000

 SYSTEM =  SiC
 POSCAR =  B H N O

 Startparameter for this run:
   NWRITE =      2    write-flag & timer
   PREC   = accura    normal or accurate (medium, high low for compatibility)
   ISTART =      1    job   : 0-new  1-cont  2-samecut
   ICHARG =      0    charge: 1-file 2-atom 10-const
   ISPIN  =      2    spin polarized calculation?
   LNONCOLLINEAR =      F non collinear calculations
   LSORBIT =      F    spin-orbit coupling
   INIWAV =      1    electr: 0-lowe 1-rand  2-diag
   LASPH  =      T    aspherical Exc in radial PAW
   METAGGA=      F    non-selfconsistent MetaGGA calc.

 Electronic Relaxation 1
   ENCUT  =  550.0 eV  40.42 Ry    6.36 a.u.  16.64 28.68 86.05*2*pi/ulx,y,z
   ENINI  =  550.0     initial cutoff
   ENAUG  =  627.1 eV  augmentation charge cutoff
   NELM   =    100;   NELMIN=  2; NELMDL=  0     # of ELM steps
   EDIFF  = 0.1E-04   stopping-criterion for ELM
   LREAL  =      T    real-space projection
   NLSPLINE    = F    spline interpolate recip. space projectors
   LCOMPAT=      F    compatible to vasp.4.4
   GGA_COMPAT  = T    GGA compatible to vasp.4.4-vasp.4.6
   LMAXPAW     = -100 max onsite density
   LMAXMIX     =    2 max onsite mixed and CHGCAR
   VOSKOWN=      0    Vosko Wilk Nusair interpolation
   ROPT   =   -0.00025  -0.00025  -0.00025  -0.00025
 Ionic relaxation
   EDIFFG = -.2E-01   stopping-criterion for IOM
   NSW    =    500    number of steps for IOM
   NBLOCK =      1;   KBLOCK =    500    inner block; outer block
   IBRION =      2    ionic relax: 0-MD 1-quasi-New 2-CG
   NFREE  =      1    steps in history (QN), initial steepest desc. (CG)
   ISIF   =      2    stress and relaxation
   IWAVPR =     11    prediction:  0-non 1-charg 2-wave 3-comb
   ISYM   =      2    0-nonsym 1-usesym 2-fastsym
   LCORR  =      T    Harris-Foulkes like correction to forces

   POTIM  = 0.5000    time-step for ionic-motion
   TEIN   =    0.0    initial temperature
   TEBEG  =    0.0;   TEEND  =   0.0 temperature during run
   SMASS  =  -3.00    Nose mass-parameter (am)
   estimated Nose-frequenzy (Omega)   =  0.10E-29 period in steps =****** mass=  -0.173E-26a.u.
   SCALEE = 1.0000    scale energy and forces
   NPACO  =    256;   APACO  = 16.0  distance and # of slots for P.C.
   PSTRESS=    0.0 pullay stress

  Mass of Ions in am
   POMASS =  10.81  1.00 14.00 16.00
  Ionic Valenz
   ZVAL   =   3.00  1.00  5.00  6.00
  Atomic Wigner-Seitz radii
  virtual crystal weights
   VCA    =   1.00  1.00  1.00  1.00
   NELECT =     176.0000    total number of electrons
   NUPDOWN=      -1.0000    fix difference up-down

 DOS related values:
   EMIN   =  10.00;   EMAX   =-10.00  energy-range for DOS
   EFERMI =   0.00
[...]
     29     -14.3190      1.00000
     30     -14.1938      1.00000
     31     -14.0154      1.00000
     32     -13.6274      1.00000
     33     -13.5429      1.00000
     34     -13.4982      1.00000
     35     -13.1690      1.00000
     36     -12.8982      1.00000
     37     -12.6448      1.00000
     38     -12.4167      1.00000
     39     -12.3290      1.00000
     40     -12.1304      1.00000
     41     -12.0562      1.00000
     42     -11.8046      1.00000
     43     -11.7418      1.00000
     44     -11.4558      1.00000
     45     -11.2415      1.00000
     46     -11.1285      1.00000
     47     -11.0813      1.00000
     48     -10.6870      1.00000
     49     -10.6670      1.00000
     50     -10.5958      1.00000
     51     -10.5113      1.00000
     52     -10.4262      1.00000
     53     -10.4085      1.00000
     54     -10.3811      1.00000
     55     -10.2474      1.00000
     56     -10.1258      1.00000
     57      -9.9929      1.00000
     58      -9.9349      1.00000
     59      -9.9051      1.00000
     60      -9.7436      1.00000
[...]
    126       1.5444      0.00000
    127       1.5591      0.00000
    128       1.6246      0.00000
    129       1.6382      0.00000
    130       1.6453      0.00000
    131       1.6570      0.00000
    132       1.6801      0.00000
    133       1.7020      0.00000
    134       1.7407      0.00000
    135       1.7498      0.00000
    136       1.7867      0.00000
    137       1.7951      0.00000
    138       1.8145      0.00000
    139       1.8655      0.00000
    140       1.9018      0.00000

[...]

 soft charge-density along one line, spin component           2
         0         1         2         3         4         5         6         7         8         9
 total charge-density along one line

------------------------ aborting loop because EDIFF is reached ----------------------------------------

[...]

  FORCE on cell =-STRESS in cart. coord.  units (eV):
  Direction    XX          YY          ZZ          XY          YZ          ZX
  Alpha Z    27.34839    27.34839    27.34839
  Ewald   17033.60563 58471.06083-22611.88491    -2.27680    -0.00000    -0.00000
  Hartree 23136.71172 58695.49605-22097.64467    -1.05041     0.00000    -0.00000
  E(xc)    -736.81708  -731.06402  -733.70072    -0.01092    -0.00000    -0.00000
  Local  -42399.25695************ 42906.79932     3.58034    -0.00000     0.00000
  n-local  -393.29290  -396.91944  -393.87137     0.01213    -0.00000     0.00000
  augment    56.00065    49.65515    45.00074    -0.01837     0.00000    -0.00000
  Kinetic  3268.86740  2929.84627  2862.70397    -0.20583    -0.00000    -0.00000
  Fock        0.00000     0.00000     0.00000     0.00000     0.00000     0.00000
  Total      -6.83314     4.21786     4.75075     0.03014     0.00000     0.00000
  in kB      -1.86373     1.15042     1.29576     0.00822     0.00000     0.00000

 VOLUME and BASIS-vectors are now :
  energy-cutoff  :      550.00
  volume of cell :     5874.19
      direct lattice vectors                 reciprocal lattice vectors
     0.000000000 -8.702500000  0.000000000     0.000000000 -0.114909509  0.000000000
    15.000000000  0.000000000  0.000000000     0.066666667  0.000000000  0.000000000
     0.000000000  0.000000000 45.000000000     0.000000000  0.000000000  0.022222222

  length of vectors
     8.702500000 15.000000000 45.000000000     0.114909509  0.066666667  0.022222222

 FORCES acting on ions
    electron-ion (+dipol)            ewald-force                    non-local-force                 convergence-correction
   0.505E+01 -.463E+01 0.236E+03   -.497E+01 0.581E+01 -.234E+03   -.110E+00 -.125E+01 -.131E+01   -.380E-03 0.177E-03 0.187E-02
   0.235E+01 0.360E+00 0.112E+03   -.233E+01 -.331E+00 -.112E+03   -.228E-01 -.152E-01 0.469E-01   -.823E-04 0.287E-04 -.228E-02
   0.201E+00 -.505E+00 0.176E-06   -.194E+00 0.455E+00 0.108E-12   -.591E-02 0.355E-01 0.000E+00   -.406E-04 0.994E-03 -.327E-13
   0.235E+01 0.360E+00 -.112E+03   -.233E+01 -.331E+00 0.112E+03   -.228E-01 -.152E-01 -.469E-01   -.823E-04 0.287E-04 0.228E-02
   0.505E+01 -.463E+01 -.236E+03   -.497E+01 0.581E+01 0.234E+03   -.110E+00 -.125E+01 0.131E+01   -.380E-03 0.177E-03 -.187E-02
   -.516E+01 -.467E+01 0.236E+03   0.504E+01 0.586E+01 -.234E+03   0.131E+00 -.125E+01 -.131E+01   0.282E-03 0.353E-03 0.182E-02
   -.138E+01 0.304E+00 0.112E+03   0.136E+01 -.278E+00 -.112E+03   0.144E-01 -.138E-01 0.479E-01   0.199E-03 0.181E-03 -.218E-02
   0.608E+00 -.538E+00 0.206E-06   -.611E+00 0.486E+00 0.128E-12   0.155E-03 0.367E-01 0.000E+00   0.931E-04 0.110E-02 0.850E-12
   -.138E+01 0.304E+00 -.112E+03   0.136E+01 -.278E+00 0.112E+03   0.144E-01 -.138E-01 -.479E-01   0.199E-03 0.181E-03 0.218E-02
   -.516E+01 -.467E+01 -.236E+03   0.504E+01 0.586E+01 0.234E+03   0.131E+00 -.125E+01 0.131E+01   0.282E-03 0.353E-03 -.182E-02
   -.385E+01 -.515E+01 0.176E+03   0.389E+01 0.499E+01 -.176E+03   -.631E-04 0.151E+00 0.297E+00   -.136E-02 -.646E-03 -.220E-02
   -.551E+00 -.203E+01 0.539E+02   0.564E+00 0.191E+01 -.538E+02   -.862E-02 0.993E-01 0.479E-01   -.729E-03 -.526E-03 0.364E-03
   -.551E+00 -.203E+01 -.539E+02   0.564E+00 0.191E+01 0.538E+02   -.862E-02 0.993E-01 -.479E-01   -.729E-03 -.526E-03 -.364E-03
   -.385E+01 -.515E+01 -.176E+03   0.389E+01 0.499E+01 0.176E+03   -.631E-04 0.151E+00 -.297E+00   -.136E-02 -.646E-03 0.220E-02
   0.500E+01 -.520E+01 0.176E+03   -.502E+01 0.504E+01 -.176E+03   -.198E-01 0.151E+00 0.296E+00   0.161E-02 -.472E-03 -.210E-02
   0.137E+01 -.206E+01 0.539E+02   -.137E+01 0.194E+01 -.538E+02   0.149E-03 0.983E-01 0.481E-01   0.837E-03 -.381E-03 0.340E-03
   0.137E+01 -.206E+01 -.539E+02   -.137E+01 0.194E+01 0.538E+02   0.149E-03 0.983E-01 -.481E-01   0.837E-03 -.381E-03 -.340E-03
   0.500E+01 -.520E+01 -.176E+03   -.502E+01 0.504E+01 0.176E+03   -.198E-01 0.151E+00 -.296E+00   0.161E-02 -.472E-03 0.210E-02
   -.889E+00 -.185E+02 0.152E+03   0.114E+01 0.229E+02 -.158E+03   -.199E+00 -.414E+01 0.645E+01   -.573E-03 0.156E-03 0.682E-03
   -.889E+00 -.185E+02 -.152E+03   0.114E+01 0.229E+02 0.158E+03   -.199E+00 -.414E+01 -.645E+01   -.573E-03 0.156E-03 -.682E-03
   0.504E+00 -.184E+02 0.152E+03   -.677E+00 0.228E+02 -.158E+03   0.113E+00 -.414E+01 0.645E+01   0.641E-03 0.182E-03 0.649E-03
   0.504E+00 -.184E+02 -.152E+03   -.677E+00 0.228E+02 0.158E+03   0.113E+00 -.414E+01 -.645E+01   0.641E-03 0.182E-03 -.649E-03
   0.305E+01 -.476E+02 0.179E+03   -.307E+01 0.520E+02 -.185E+03   -.170E-01 -.534E+01 0.712E+01   -.245E-04 -.270E-03 0.202E-03
   -.559E+01 -.476E+02 0.179E+03   0.571E+01 0.520E+02 -.185E+03   -.113E+00 -.534E+01 0.712E+01   -.581E-04 -.207E-03 0.127E-03
   0.305E+01 -.476E+02 -.179E+03   -.307E+01 0.520E+02 0.185E+03   -.170E-01 -.534E+01 -.712E+01   -.245E-04 -.270E-03 -.202E-03
   -.559E+01 -.476E+02 -.179E+03   0.571E+01 0.520E+02 0.185E+03   -.113E+00 -.534E+01 -.712E+01   -.581E-04 -.207E-03 -.127E-03
   -.311E+01 -.222E+02 0.453E+03   0.348E+01 0.210E+02 -.448E+03   -.236E+00 0.153E+01 -.273E+01   -.556E-02 0.284E-03 0.101E-01
   -.334E+00 0.510E+00 0.186E+03   0.309E+00 -.726E+00 -.185E+03   0.472E-01 0.208E+00 0.114E+00   -.298E-02 -.179E-03 -.465E-02
   0.152E+00 0.116E+01 -.672E-07   -.184E+00 -.138E+01 0.163E-12   0.408E-01 0.195E+00 0.000E+00   -.234E-02 -.121E-02 0.692E-12
   -.334E+00 0.510E+00 -.186E+03   0.309E+00 -.726E+00 0.185E+03   0.472E-01 0.208E+00 -.114E+00   -.298E-02 -.179E-03 0.465E-02
   -.311E+01 -.222E+02 -.453E+03   0.348E+01 0.210E+02 0.448E+03   -.236E+00 0.153E+01 0.273E+01   -.556E-02 0.284E-03 -.101E-01
   0.677E+01 -.220E+02 0.453E+03   -.754E+01 0.208E+02 -.448E+03   0.583E+00 0.153E+01 -.272E+01   0.685E-02 0.372E-03 0.961E-02
   0.217E+01 0.444E+00 0.186E+03   -.219E+01 -.662E+00 -.185E+03   -.113E-01 0.208E+00 0.116E+00   0.430E-02 0.187E-03 -.438E-02
   0.101E+01 0.111E+01 -.422E-08   -.984E+00 -.132E+01 0.188E-12   -.379E-01 0.192E+00 0.000E+00   0.137E-02 -.794E-03 0.205E-11
   0.217E+01 0.444E+00 -.186E+03   -.219E+01 -.662E+00 0.185E+03   -.113E-01 0.208E+00 -.116E+00   0.430E-02 0.187E-03 0.438E-02
   0.677E+01 -.220E+02 -.453E+03   -.754E+01 0.208E+02 0.448E+03   0.583E+00 0.153E+01 0.272E+01   0.685E-02 0.372E-03 -.961E-02
   0.132E+02 0.579E+01 0.294E+03   -.138E+02 -.613E+01 -.294E+03   0.470E+00 0.246E+00 0.561E-01   0.120E-02 -.159E-03 -.374E-02
   0.168E+01 0.389E+00 0.916E+02   -.168E+01 -.427E+00 -.915E+02   -.818E-02 0.229E-01 0.117E+00   0.909E-03 -.117E-02 0.628E-04
   0.168E+01 0.389E+00 -.916E+02   -.168E+01 -.427E+00 0.915E+02   -.818E-02 0.229E-01 -.117E+00   0.909E-03 -.117E-02 -.628E-04
   0.132E+02 0.579E+01 -.294E+03   -.138E+02 -.613E+01 0.294E+03   0.470E+00 0.246E+00 -.561E-01   0.120E-02 -.159E-03 0.374E-02
   -.121E+02 0.583E+01 0.294E+03   0.126E+02 -.617E+01 -.293E+03   -.432E+00 0.248E+00 0.579E-01   -.251E-02 -.486E-03 -.424E-02
   -.167E+00 0.414E+00 0.915E+02   0.137E+00 -.457E+00 -.915E+02   0.314E-01 0.275E-01 0.114E+00   -.509E-03 -.106E-02 -.203E-05
   -.167E+00 0.414E+00 -.915E+02   0.137E+00 -.457E+00 0.915E+02   0.314E-01 0.275E-01 -.114E+00   -.509E-03 -.106E-02 0.203E-05
   -.121E+02 0.583E+01 -.294E+03   0.126E+02 -.617E+01 0.293E+03   -.432E+00 0.248E+00 -.579E-01   -.251E-02 -.486E-03 0.424E-02
   0.311E+02 0.599E+02 0.702E+03   -.337E+02 -.100E+03 -.699E+03   0.224E+01 0.386E+02 0.850E+00   0.415E-03 0.186E-02 -.352E-02
   -.402E+02 0.599E+02 0.701E+03   0.431E+02 -.101E+03 -.698E+03   -.256E+01 0.386E+02 0.775E+00   -.130E-02 0.220E-02 -.467E-02
   0.311E+02 0.599E+02 -.702E+03   -.337E+02 -.100E+03 0.699E+03   0.224E+01 0.386E+02 -.850E+00   0.415E-03 0.186E-02 0.352E-02
   -.402E+02 0.599E+02 -.701E+03   0.431E+02 -.101E+03 0.698E+03   -.256E+01 0.386E+02 -.775E+00   -.130E-02 0.220E-02 0.467E-02
   0.228E+00 -.122E+03 -.547E-05   -.711E-14 -.142E-12 -.341E-12   -.202E+00 0.121E+03 -.111E-15   0.144E-02 0.925E-03 0.176E-10

 POSITION                                       TOTAL-FORCE (eV/Angst)
      7.43930     -2.79278     17.50082        -0.001790     -0.011653      0.001618
      7.47821     -2.81725     19.99562        -0.000367      0.007943      0.005253
      7.49163     -2.81792     22.50000        -0.000518     -0.006772      0.000000
      7.47821     -2.81725     25.00438        -0.000367      0.007943     -0.005253
      7.43930     -2.79278     27.49918        -0.001790     -0.011653     -0.001618
      7.57692     -7.14385     17.50196         0.001771     -0.012063      0.001385
      7.51668     -7.16849     19.99599         0.000535      0.007805      0.004107
      7.49988     -7.16910     22.50000         0.000312     -0.007206      0.000000
      7.51668     -7.16849     25.00401         0.000535      0.007805     -0.004107
      7.57692     -7.14385     27.49804         0.001771     -0.012063     -0.001385
      7.52701     -0.63862     18.76227        -0.004531     -0.010456      0.006259
      7.50376     -0.64224     21.25373        -0.002611     -0.004033     -0.007541
      7.50376     -0.64224     23.74627        -0.002611     -0.004033      0.007541
      7.52701     -0.63862     26.23773        -0.004531     -0.010456     -0.006259
      7.47153     -4.99008     18.76197         0.005797     -0.009856      0.005936
      7.48849     -4.99349     21.25367         0.002177     -0.002755     -0.007976
      7.48849     -4.99349     23.74633         0.002177     -0.002755      0.007976
      7.47153     -4.99008     26.23803         0.005797     -0.009856     -0.005936
      7.53033     -0.84959     16.69923        -0.011924      0.000017      0.004917
      7.53033     -0.84959     28.30077        -0.011924      0.000017     -0.004917
      7.48383     -5.20141     16.69891         0.012329      0.000428      0.004761
      7.48383     -5.20141     28.30109         0.012329      0.000428     -0.004761
      7.36944     -2.82071     15.52268         0.000053      0.009578     -0.004433
      7.69138     -7.17194     15.52587        -0.004241      0.009880     -0.004035
      7.36944     -2.82071     29.47732         0.000053      0.009578      0.004433
      7.69138     -7.17194     29.47413        -0.004241      0.009880      0.004035
      7.50716     -1.38446     17.55732        -0.006356      0.005365     -0.009730
      7.50154     -1.36845     20.01112        -0.002603     -0.000910      0.003592
      7.49844     -1.36924     22.50000        -0.002579     -0.000674      0.000000
      7.50154     -1.36845     24.98888        -0.002603     -0.000910     -0.003592
      7.50716     -1.38446     27.44268        -0.006356      0.005365      0.009730
      7.49482     -5.73631     17.55724         0.009133      0.005288     -0.009386
      7.49228     -5.71966     20.01108         0.004610     -0.001506      0.003810
      7.49335     -5.72043     22.50000         0.001057     -0.000811      0.000000
      7.49228     -5.71966     24.98892         0.004610     -0.001506     -0.003810
      7.49482     -5.73631     27.44276         0.009133      0.005288      0.009386
      7.44689     -3.54325     18.74298         0.002445      0.006533     -0.004759
      7.48616     -3.54420     21.24969         0.001409     -0.002411     -0.008505
      7.48616     -3.54420     23.75031         0.001409     -0.002411      0.008505
      7.44689     -3.54325     26.25702         0.002445      0.006533      0.004759
      7.55482     -7.89448     18.74374        -0.002846      0.007012     -0.004206
      7.50581     -7.89547     21.24984        -0.000812     -0.002236     -0.008112
      7.50581     -7.89547     23.75016        -0.000812     -0.002236      0.008112
      7.55482     -7.89448     26.25626        -0.002846      0.007012      0.004206
      7.36531     -3.42352     16.27586         0.001708      0.001913      0.007439
      7.68183     -7.77442     16.27925        -0.003023      0.003847      0.004535
      7.36531     -3.42352     28.72414         0.001708      0.001913     -0.007439
      7.68183     -7.77442     28.72075        -0.003023      0.003847     -0.004535
    total drift:                                0.026947     -0.803321     -0.000005

  FREE ENERGIE OF THE ION-ELECTRON SYSTEM (eV)
  free  energy   TOTEN  =      -417.84652160 eV

  energy  without entropy=     -417.84652160  energy(sigma->0) =     -417.84652160

 d Force = 0.9524728E-05[-0.701E-06, 0.198E-04]  d Energy = 0.1780994E-04-0.829E-05
 d Force =-0.6953000E-01[-0.695E-01,-0.696E-01]  d Ewald  =-0.6953000E-01-0.239E-08

 reached required accuracy - stopping structural energy minimisation
 writing wavefunctions

 total charge

[...]

 magnetization (x)

# of ion       s       p       d       tot
    1        0.000  -0.000   0.000  -0.000
    2       -0.000  -0.000   0.000  -0.000
    3       -0.000   0.000   0.000   0.000
    4       -0.000  -0.000   0.000  -0.000
    5        0.000  -0.000   0.000  -0.000
    6        0.000  -0.000   0.000  -0.000
    7       -0.000  -0.000   0.000  -0.000
    8        0.000  -0.000   0.000  -0.000
    9       -0.000  -0.000   0.000  -0.000
   10        0.000  -0.000   0.000  -0.000
   11        0.000   0.000   0.000   0.000
   12       -0.000   0.000   0.000   0.000
   13       -0.000   0.000   0.000   0.000
   14        0.000   0.000   0.000   0.000
   15        0.000   0.000   0.000   0.000
   16        0.000  -0.000   0.000  -0.000
   17        0.000  -0.000   0.000  -0.000
   18        0.000   0.000   0.000   0.000
   19        0.000  -0.000   0.000   0.000
   20        0.000  -0.000   0.000   0.000
   21        0.000  -0.000   0.000  -0.000
   22        0.000  -0.000   0.000  -0.000
   23       -0.000  -0.000   0.000  -0.000
   24       -0.000   0.000   0.000   0.000
   25       -0.000  -0.000   0.000  -0.000
   26       -0.000   0.000   0.000   0.000
   27        0.000   0.000   0.000   0.000
   28        0.000   0.000   0.000   0.000
   29        0.000  -0.000   0.000  -0.000
   30        0.000   0.000   0.000   0.000
   31        0.000   0.000   0.000   0.000
   32        0.000  -0.000   0.000  -0.000
   33       -0.000   0.000   0.000   0.000
   34       -0.000   0.000   0.000   0.000
   35        0.000   0.000   0.000   0.000
   36        0.000  -0.000   0.000  -0.000
   37        0.000   0.000   0.000   0.000
   38        0.000   0.000   0.000   0.000
   39        0.000   0.000   0.000   0.000
   40        0.000   0.000   0.000   0.000
   41        0.000   0.000   0.000   0.000
   42       -0.000   0.000   0.000   0.000
   43       -0.000   0.000   0.000   0.000
   44        0.000   0.000   0.000   0.000
   45        0.000   0.000   0.000   0.000
   46        0.000   0.000   0.000   0.000
   47        0.000   0.000   0.000   0.000
   48        0.000   0.000   0.000   0.000
tot          0.000   0.000   0.000   0.000