 vasp.5.4.4.18Apr17-6-g9f103f2a35 (build May 01 2020 14:57:12) complex

 executed on             LinuxIFC date 2021.03.17  00:01:13

 INCAR:
 POTCAR:    PAW_PBE B 06Sep2000
 POTCAR:    PAW_PBE N 08Apr2002
 POTCAR:    PAW_PBE C 08Apr2002
 POTCAR:    PAW_PBE F 08Apr2002
 POTCAR:    PAW_PBE O 08Apr2002

 POTCAR:    PAW_PBE B 06Sep2000
   VRHFIN =B: s2p1

   TITEL  = PAW_PBE B 06Sep2000
   POMASS =   10.811; ZVAL   =    3.000    mass and valenz
   ENMAX  =  318.614; ENMIN  =  238.960 eV

 POTCAR:    PAW_PBE N 08Apr2002
   VRHFIN =N: s2p3

   TITEL  = PAW_PBE N 08Apr2002
   POMASS =   14.001; ZVAL   =    5.000    mass and valenz
   ENMAX  =  400.000; ENMIN  =  300.000 eV

 POTCAR:    PAW_PBE C 08Apr2002
   VRHFIN =C: s2p2

[...]

 POTCAR:    PAW_PBE F 08Apr2002
   VRHFIN =F: s2p5

[...]

 POTCAR:    PAW_PBE O 08Apr2002
   VRHFIN =O: s2p4

   TITEL  = PAW_PBE O 08Apr2002
   POMASS =   16.000; ZVAL   =    6.000    mass and valenz
   ENMAX  =  400.000; ENMIN  =  300.000 eV

 Optimization of the real space projectors (new method)

 maximal supplied QI-value         = 22.11
 optimisation between [QCUT,QGAM] = [ 11.94, 23.88] = [ 39.92,159.67] Ry
 Optimized for a Real-space Cutoff    1.18 Angstroem

   l    n(q)    QCUT    max X(q) W(low)/X(q) W(high)/X(q)  e(spline)
   0      8    11.939    53.033    0.11E-03    0.34E-03    0.60E-07
   0      8    11.939    34.740    0.11E-03    0.34E-03    0.59E-07
   1      8    11.939    30.949    0.22E-03    0.20E-03    0.17E-06
   1      8    11.939    19.518    0.20E-03    0.18E-03    0.16E-06
 Optimization of the real space projectors (new method)

[...]

   l    n(q)    QCUT    max X(q) W(low)/X(q) W(high)/X(q)  e(spline)
   0      8    11.883    14.049    0.56E-04    0.86E-04    0.22E-06
   0      8    11.883     8.945    0.81E-04    0.11E-03    0.30E-06
   1      8    11.883     7.086    0.16E-03    0.15E-04    0.31E-06
   1      8    11.883     6.747    0.15E-03    0.14E-04    0.28E-06
 Optimization of the real space projectors (new method)

 maximal supplied QI-value         = 24.76
 optimisation between [QCUT,QGAM] = [ 11.88, 24.01] = [ 39.54,161.47] Ry
 Optimized for a Real-space Cutoff    1.18 Angstroem

   l    n(q)    QCUT    max X(q) W(low)/X(q) W(high)/X(q)  e(spline)
   0      8    11.883    20.381    0.86E-04    0.11E-03    0.31E-06
   0      8    11.883    15.268    0.94E-04    0.12E-03    0.33E-06
   1      8    11.883     5.964    0.19E-03    0.18E-04    0.33E-06
   1      8    11.883     5.382    0.17E-03    0.20E-04    0.29E-06
  PAW_PBE B 06Sep2000                   :
  PAW_PBE N 08Apr2002                   :
  PAW_PBE C 08Apr2002                   :
  PAW_PBE F 08Apr2002                   :
  PAW_PBE O 08Apr2002                   :

 POSCAR: B N C F O
  positions in direct lattice
  velocities in cartesian coordinates

 METAGGA = SCAN     LMAXTAU =  6    LMIXTAU =  F

 ion  position               nearest neighbor table
   1  0.111  0.056  0.500-  37 1.45  42 1.45  43 1.45
   2  0.111  0.222  0.500-  38 1.45  44 1.45  37 1.45
   3  0.111  0.389  0.500-  45 1.45  38 1.45  39 1.45
   4  0.111  0.556  0.500-  46 1.45  39 1.45  40 1.45
   5  0.111  0.722  0.500-  40 1.45  47 1.45  41 1.45
   6  0.111  0.889  0.500-  42 1.45  41 1.45  48 1.45
   7  0.278  0.056  0.500-  48 1.45  49 1.45  43 1.45
   8  0.278  0.222  0.500-  44 1.45  50 1.45  43 1.45
   9  0.278  0.389  0.500-  51 1.45  45 1.45  44 1.45
  10  0.278  0.556  0.500-  45 1.45  52 1.45  46 1.45
  11  0.278  0.722  0.500-  46 1.45  53 1.45  47 1.45
  12  0.278  0.889  0.500-  47 1.45  54 1.45  48 1.45
  13  0.444  0.056  0.500-  54 1.45  55 1.45  49 1.45
  14  0.444  0.222  0.500-  56 1.45  49 1.45  50 1.45
  15  0.444  0.389  0.500-  51 1.45  57 1.45  50 1.45
  16  0.444  0.556  0.500-  51 1.45  52 1.45  58 1.45
  17  0.444  0.722  0.500-  52 1.45  59 1.45  53 1.45
  18  0.444  0.889  0.500-  53 1.45  60 1.45  54 1.45
  19  0.611  0.056  0.500-  60 1.45  61 1.45  55 1.45
  20  0.611  0.222  0.500-  62 1.45  55 1.45  56 1.45
  21  0.611  0.389  0.500-  57 1.45  63 1.45  56 1.45
  22  0.611  0.556  0.500-  58 1.45  57 1.45  64 1.45
  23  0.611  0.722  0.500-  58 1.45  59 1.45  65 1.45
  24  0.611  0.889  0.500-  59 1.45  66 1.45  60 1.45
  25  0.778  0.056  0.500-  67 1.45  66 1.45  61 1.45
  26  0.778  0.222  0.500-  68 1.45  62 1.45  61 1.45
  27  0.778  0.389  0.500-  63 1.45  69 1.45  62 1.45
  28  0.778  0.556  0.500-  64 1.45  63 1.45  70 1.45
  29  0.778  0.722  0.500-  64 1.45  65 1.45  71 1.45
  30  0.778  0.889  0.500-  65 1.45  66 1.45  72 1.45
  31  0.944  0.056  0.500-  67 1.45  37 1.45  72 1.45
  32  0.944  0.222  0.500-  38 1.45  67 1.45  68 1.45
  33  0.944  0.389  0.500-  39 1.45  68 1.45  69 1.45
  34  0.944  0.556  0.500-  69 1.45  40 1.45  70 1.45
  35  0.944  0.722  0.500-  70 1.45  71 1.45  41 1.45
  36  0.944  0.889  0.500-  72 1.45  71 1.45  42 1.45
  37  0.056  0.111  0.500-   1 1.45  31 1.45   2 1.45
  38  0.056  0.278  0.500-  32 1.45   2 1.45   3 1.45
  39  0.056  0.444  0.500-  33 1.45   4 1.45   3 1.45
  40  0.056  0.611  0.500-   5 1.45  34 1.45   4 1.45
  41  0.056  0.778  0.500-   6 1.45  35 1.45   5 1.45
  42  0.056  0.944  0.500-   6 1.45   1 1.45  36 1.45
  43  0.222  0.111  0.500-   7 1.45   8 1.45   1 1.45
  44  0.222  0.278  0.500-   8 1.45   2 1.45   9 1.45
  45  0.222  0.444  0.500-   3 1.45  10 1.45   9 1.45
  46  0.222  0.611  0.500-  11 1.45   4 1.45  10 1.45
  47  0.222  0.778  0.500-  12 1.45   5 1.45  11 1.45
  48  0.222  0.944  0.500-   7 1.45   6 1.45  12 1.45
  49  0.389  0.111  0.500-   7 1.45  14 1.45  13 1.45
  50  0.389  0.278  0.500-   8 1.45  14 1.45  15 1.45
  51  0.389  0.444  0.500-  15 1.45   9 1.45  16 1.45
  52  0.389  0.611  0.500-  17 1.45  10 1.45  16 1.45
  53  0.389  0.778  0.500-  18 1.45  11 1.45  17 1.45
  54  0.389  0.944  0.500-  13 1.45  12 1.45  18 1.45
  55  0.556  0.111  0.500-  13 1.45  20 1.45  19 1.45
  56  0.556  0.278  0.500-  14 1.45  20 1.45  21 1.45
  57  0.556  0.444  0.500-  21 1.45  15 1.45  22 1.45
  58  0.556  0.611  0.500-  22 1.45  23 1.45  16 1.45
  59  0.556  0.778  0.500-  24 1.45  23 1.45  17 1.45
  60  0.556  0.944  0.500-  19 1.45  18 1.45  24 1.45
[...]
  68  0.889  0.278  0.500-  26 1.45  33 1.45  32 1.45
  69  0.889  0.444  0.500-  34 1.45  27 1.45  33 1.45
  70  0.889  0.611  0.500-  35 1.45  34 1.45  28 1.45
  71  0.889  0.778  0.500-  36 1.45  35 1.45  29 1.45
  72  0.889  0.944  0.500-  36 1.45  31 1.45  30 1.45
  73  0.372  0.314  0.673-  76 1.34  78 1.34  77 1.35  74 1.54
  74  0.354  0.317  0.630-  80 1.37  79 1.37  73 1.54  75 1.55
  75  0.342  0.410  0.618-  82 1.25  81 1.25  74 1.55
  76  0.461  0.396  0.684-  73 1.34
  77  0.377  0.229  0.682-  73 1.35
  78  0.296  0.312  0.693-  73 1.34
  79  0.434  0.317  0.612-  74 1.37
  80  0.268  0.226  0.622-  74 1.37
  81  0.425  0.491  0.613-  75 1.25
  82  0.253  0.394  0.615-  75 1.25

IMPORTANT INFORMATION: All symmetrisations will be switched off!
NOSYMM: (Re-)initialisation of all symmetry stuff for point group C_1.

 KPOINTS: K-Point Grid

Automatic generation of k-mesh.
Space group operators:
 irot       det(A)        alpha          n_x          n_y          n_z        tau_x        tau_y        tau_z
    1     1.000000     0.000000     1.000000     0.000000     0.000000     0.000000     0.000000     0.000000

 Subroutine IBZKPT returns following result:

 Found      5 irreducible k-points:

 Following reciprocal coordinates:
            Coordinates               Weight
  0.000000  0.000000  0.000000      1.000000
  0.333333  0.000000  0.000000      2.000000
  0.000000  0.333333  0.000000      2.000000
  0.333333  0.333333  0.000000      2.000000
 -0.333333  0.333333  0.000000      2.000000

 Following cartesian coordinates:
            Coordinates               Weight
  0.000000  0.000000  0.000000      1.000000
  0.022114 -0.012768  0.000000      2.000000
  0.022114  0.012768  0.000000      2.000000
  0.044229  0.000000  0.000000      2.000000
  0.000000  0.025535  0.000000      2.000000

 SYSTEM =  SiC
 POSCAR =  B N C F O

 Startparameter for this run:
   NWRITE =      2    write-flag & timer
   PREC   = accura    normal or accurate (medium, high low for compatibility)
   ISTART =      0    job   : 0-new  1-cont  2-samecut
   ICHARG =      2    charge: 1-file 2-atom 10-const
   ISPIN  =      2    spin polarized calculation?
   LNONCOLLINEAR =      F non collinear calculations
   LSORBIT =      F    spin-orbit coupling
   INIWAV =      1    electr: 0-lowe 1-rand  2-diag
   LASPH  =      T    aspherical Exc in radial PAW
   METAGGA=      F    non-selfconsistent MetaGGA calc.

 Electronic Relaxation 1
   ENCUT  =  550.0 eV  40.42 Ry    6.36 a.u.  28.82 28.82 67.15*2*pi/ulx,y,z
   ENINI  =  550.0     initial cutoff
   ENAUG  =  644.9 eV  augmentation charge cutoff
   NELM   =    100;   NELMIN=  2; NELMDL= -5     # of ELM steps
   EDIFF  = 0.1E-04   stopping-criterion for ELM
   LREAL  =      T    real-space projection
   NLSPLINE    = F    spline interpolate recip. space projectors
   LCOMPAT=      F    compatible to vasp.4.4
   GGA_COMPAT  = T    GGA compatible to vasp.4.4-vasp.4.6
   LMAXPAW     = -100 max onsite density
   LMAXMIX     =    2 max onsite mixed and CHGCAR
   VOSKOWN=      0    Vosko Wilk Nusair interpolation
   ROPT   =   -0.00025  -0.00025  -0.00025  -0.00025
   ROPT   =   -0.00025
 Ionic relaxation
   EDIFFG = -.2E-01   stopping-criterion for IOM
   NSW    =    500    number of steps for IOM
   NBLOCK =      1;   KBLOCK =    500    inner block; outer block
   IBRION =      2    ionic relax: 0-MD 1-quasi-New 2-CG
   NFREE  =      1    steps in history (QN), initial steepest desc. (CG)
   ISIF   =      2    stress and relaxation
   IWAVPR =     11    prediction:  0-non 1-charg 2-wave 3-comb
   ISYM   =      0    0-nonsym 1-usesym 2-fastsym
   LCORR  =      T    Harris-Foulkes like correction to forces

   POTIM  = 0.5000    time-step for ionic-motion
   TEIN   =    0.0    initial temperature
   TEBEG  =    0.0;   TEEND  =   0.0 temperature during run
   SMASS  =  -3.00    Nose mass-parameter (am)
   estimated Nose-frequenzy (Omega)   =  0.10E-29 period in steps =****** mass=  -0.519E-26a.u.
   SCALEE = 1.0000    scale energy and forces
   NPACO  =    256;   APACO  = 16.0  distance and # of slots for P.C.
   PSTRESS=    0.0 pullay stress

  Mass of Ions in am
   POMASS =  10.81 14.00 12.01 19.00 16.00
  Ionic Valenz
   ZVAL   =   3.00  5.00  4.00  7.00  6.00
  Atomic Wigner-Seitz radii
  virtual crystal weights
   VCA    =   1.00  1.00  1.00  1.00  1.00
   NELECT =     347.0000    total number of electrons
   NUPDOWN=      -1.0000    fix difference up-down

 DOS related values:
   EMIN   =  10.00;   EMAX   =-10.00  energy-range for DOS
   EFERMI =   0.00
   ISMEAR =     0;   SIGMA  =   0.05  broadening in eV -4-tet -1-fermi 0-gaus

 Electronic relaxation 2 (details)
   IALGO  =     68    algorithm
   LDIAG  =      T    sub-space diagonalisation (order eigenvalues)
   LSUBROT=      F    optimize rotation matrix (better conditioning)
   TURBO    =      0    0=normal 1=particle mesh
   IRESTART =      0    0=no restart 2=restart with 2 vectors
   NREBOOT  =      0    no. of reboots
[...]
   0.394E+01 -.212E+01 0.425E+02   -.389E+01 0.206E+01 -.419E+02   -.333E-03 0.918E-03 0.333E-03   0.238E-03 0.630E-04 -.109E-02
   0.145E+01 0.309E+01 0.441E+02   -.136E+01 -.312E+01 -.435E+02   -.879E-03 0.361E-03 0.270E-03   0.609E-04 -.852E-04 -.103E-02
   -.737E+01 0.909E+01 0.480E+02   0.735E+01 -.900E+01 -.474E+02   -.464E-03 -.724E-03 0.759E-03   0.796E-04 -.409E-03 -.119E-02
   -.146E+02 0.831E+01 0.505E+02   0.144E+02 -.813E+01 -.498E+02   0.832E-03 -.150E-02 0.472E-03   0.446E-03 -.629E-03 -.157E-02
   -.119E+02 0.193E+01 0.478E+02   0.117E+02 -.182E+01 -.471E+02   0.197E-02 -.787E-03 0.441E-03   0.807E-03 -.291E-03 -.168E-02
   -.226E+01 -.254E+01 0.438E+02   0.214E+01 0.252E+01 -.431E+02   0.141E-02 0.431E-03 0.784E-03   0.604E-03 0.579E-04 -.135E-02
   0.155E+02 -.512E+01 0.505E+02   -.153E+02 0.511E+01 -.498E+02   -.708E-03 -.323E-03 0.807E-03   -.575E-04 0.187E-04 -.110E-02
   0.129E+02 -.105E+02 0.509E+02   -.126E+02 0.104E+02 -.501E+02   -.208E-02 0.122E-02 0.119E-03   -.328E-03 0.168E-03 -.116E-02
   0.331E+01 -.786E+01 0.464E+02   -.315E+01 0.764E+01 -.456E+02   -.213E-02 0.158E-02 0.443E-03   -.235E-03 0.143E-03 -.113E-02
   -.318E+01 -.819E+00 0.427E+02   0.316E+01 0.727E+00 -.421E+02   -.784E-04 0.415E-03 0.980E-03   0.361E-04 -.117E-03 -.113E-02
   -.127E+01 0.284E+01 0.427E+02   0.120E+01 -.281E+01 -.421E+02   0.730E-03 -.145E-03 0.499E-03   0.273E-03 -.156E-03 -.118E-02
   0.783E+01 0.120E+01 0.459E+02   -.778E+01 -.114E+01 -.453E+02   0.274E-03 -.299E-03 0.737E-03   0.274E-03 -.369E-04 -.113E-02
   0.402E+02 -.874E+01 0.106E+03   -.396E+02 0.884E+01 -.104E+03   -.419E-02 -.333E-02 -.482E-02   -.882E-03 -.563E-04 -.210E-02
   0.299E+02 -.294E+02 0.108E+03   -.292E+02 0.290E+02 -.106E+03   -.796E-02 -.171E-02 0.429E-03   -.146E-02 0.592E-03 -.268E-02
   0.846E+01 -.284E+02 0.879E+02   -.816E+01 0.277E+02 -.863E+02   -.222E-02 0.767E-02 -.325E-02   -.822E-03 0.954E-03 -.242E-02
   0.601E-01 -.104E+02 0.720E+02   -.553E-01 0.100E+02 -.709E+02   0.588E-03 0.528E-02 -.613E-02   -.111E-03 0.318E-03 -.194E-02
   0.813E+01 0.429E+01 0.717E+02   -.811E+01 -.432E+01 -.708E+02   0.717E-03 0.117E-02 0.302E-03   0.204E-03 -.165E-04 -.184E-02
   0.271E+02 0.689E+01 0.859E+02   -.268E+02 -.673E+01 -.849E+02   -.311E-03 -.855E-03 -.275E-02   0.409E-04 -.521E-04 -.177E-02
   0.414E+02 0.186E+02 0.130E+03   -.409E+02 -.181E+02 -.129E+03   0.298E-03 -.110E-02 -.376E-02   -.119E-02 -.621E-03 -.240E-02
   0.338E+02 -.163E+02 0.162E+03   -.332E+02 0.166E+02 -.160E+03   -.788E-02 -.125E-01 0.551E-02   -.252E-02 -.226E-03 -.451E-02
   0.590E+01 -.454E+02 0.138E+03   -.566E+01 0.448E+02 -.135E+03   -.351E-02 0.320E-02 0.354E-01   -.178E-02 0.180E-02 -.523E-02
   -.487E+01 -.314E+02 0.902E+02   0.475E+01 0.306E+02 -.885E+02   0.931E-03 0.117E-01 -.223E-02   -.287E-03 0.182E-02 -.317E-02
   0.430E+01 -.340E+01 0.738E+02   -.436E+01 0.309E+01 -.727E+02   0.542E-03 0.499E-02 -.675E-02   0.214E-04 0.582E-03 -.199E-02
   0.232E+02 0.182E+02 0.881E+02   -.230E+02 -.180E+02 -.870E+02   0.356E-03 0.986E-03 -.237E-02   -.130E-03 0.246E-04 -.176E-02
   0.172E+02 0.391E+02 0.114E+03   -.170E+02 -.386E+02 -.113E+03   -.114E-02 -.697E-04 -.373E-02   -.588E-03 -.642E-03 -.214E-02
   0.638E+01 0.292E+02 0.171E+03   -.610E+01 -.286E+02 -.169E+03   -.962E-02 -.258E-02 0.347E-02   -.161E-02 -.198E-02 -.457E-02
   -.215E+02 -.161E+02 0.176E+03   0.215E+02 0.163E+02 -.174E+03   -.897E-02 -.103E-01 0.378E-01   -.104E-02 -.373E-03 -.834E-02
   -.274E+02 -.354E+02 0.119E+03   0.269E+02 0.348E+02 -.117E+03   0.638E-02 0.878E-02 0.957E-02   0.793E-03 0.234E-02 -.621E-02
   -.108E+02 -.143E+02 0.801E+02   0.105E+02 0.138E+02 -.788E+02   0.244E-02 0.660E-02 -.565E-02   0.539E-03 0.140E-02 -.285E-02
   0.646E+01 0.149E+02 0.795E+02   -.650E+01 -.149E+02 -.785E+02   0.394E-03 0.230E-02 -.448E-02   0.313E-04 0.334E-03 -.193E-02
   0.466E+00 0.267E+02 0.843E+02   -.457E+00 -.265E+02 -.833E+02   -.658E-03 0.389E-03 0.873E-04   0.159E-04 -.158E-03 -.191E-02
   -.129E+02 0.423E+02 0.118E+03   0.129E+02 -.417E+02 -.117E+03   -.370E-02 -.174E-02 -.276E-02   -.278E-03 -.149E-02 -.274E-02
   -.393E+02 0.235E+02 0.142E+03   0.390E+02 -.228E+02 -.140E+03   0.120E-03 -.642E-02 0.810E-02   0.588E-03 -.245E-02 -.552E-02
   -.447E+02 -.838E+01 0.120E+03   0.439E+02 0.851E+01 -.118E+03   0.121E-01 -.503E-02 0.624E-02   0.234E-02 -.221E-03 -.641E-02
   -.245E+02 -.139E+02 0.848E+02   0.238E+02 0.136E+02 -.833E+02   0.551E-02 0.204E-02 -.412E-02   0.163E-02 0.105E-02 -.364E-02
   -.537E+01 0.279E+01 0.721E+02   0.515E+01 -.294E+01 -.711E+02   0.141E-02 0.218E-02 -.214E-02   0.501E-03 0.488E-03 -.219E-02
[...]
   -.469E+01 0.291E-01 0.738E+02   0.474E+01 -.170E+00 -.727E+02   0.265E-03 0.240E-02 -.766E-02   -.399E-04 -.250E-03 -.184E-02
   -.112E+02 0.608E+01 0.729E+02   0.110E+02 -.601E+01 -.719E+02   0.263E-02 -.600E-04 -.401E-02   0.392E-03 -.504E-03 -.210E-02
   -.307E+01 0.391E+01 0.734E+02   0.291E+01 -.379E+01 -.724E+02   0.270E-02 -.168E-02 -.261E-02   0.750E-03 -.250E-03 -.215E-02
   0.125E+02 -.324E+01 0.760E+02   -.124E+02 0.327E+01 -.750E+02   0.102E-03 -.179E-02 -.563E-02   0.526E-03 0.168E-05 -.191E-02
   0.209E+00 0.211E+02 -.419E+03   -.796E+00 -.185E+02 0.408E+03   0.860E+00 -.176E+01 0.104E+02   -.534E-02 -.465E-02 -.130E-01
   -.811E+01 -.390E+02 -.316E+03   0.143E+02 0.502E+02 0.321E+03   -.564E+01 -.997E+01 -.365E+01   -.138E-01 -.873E-02 -.157E-01
   -.341E+02 -.981E+02 -.305E+03   0.341E+02 0.981E+02 0.306E+03   0.779E+00 0.154E+01 -.548E-01   -.434E-01 0.218E-02 -.139E-01
   -.536E+03 0.859E+02 -.917E+03   0.592E+03 -.881E+02 0.932E+03   -.552E+02 0.363E+01 -.165E+02   -.219E-02 -.100E-01 -.185E-01
   0.246E+03 0.526E+03 -.876E+03   -.271E+03 -.575E+03 0.889E+03   0.253E+02 0.493E+02 -.135E+02   -.460E-02 -.578E-02 -.296E-01
   0.247E+03 -.358E+03 -.104E+04   -.272E+03 0.401E+03 0.107E+04   0.252E+02 -.414E+02 -.309E+02   -.758E-02 -.133E-02 -.250E-01
   -.212E+03 0.432E+03 -.313E+03   0.237E+03 -.471E+03 0.288E+03   -.238E+02 0.398E+02 0.263E+02   -.120E-01 -.225E-01 -.367E-01
   0.562E+03 0.425E+02 -.441E+03   -.614E+03 -.418E+02 0.429E+03   0.519E+02 0.164E+01 0.130E+02   -.127E-01 -.498E-02 -.341E-01
   -.450E+03 -.153E+03 -.430E+03   0.502E+03 0.154E+03 0.424E+03   -.502E+02 0.305E+00 0.790E+01   0.230E-03 0.199E-02 -.304E-01
   0.189E+03 -.449E+03 -.465E+03   -.222E+03 0.491E+03 0.463E+03   0.324E+02 -.391E+02 0.395E+01   -.270E-01 0.122E-01 -.288E-01
   -.135E+01 -.396E+01 0.346E+01   -.568E-13 0.000E+00 -.460E-11   0.148E+01 0.400E+01 -.303E+01   -.128E+00 -.418E-01 -.416E+00

 POSITION                                       TOTAL-FORCE (eV/Angst)
      1.25608     -0.72517     17.55765        -0.000030      0.000037      0.000363
      2.51222      1.45046     17.55638        -0.000212     -0.000108      0.001399
      3.76838      3.62597     17.55505        -0.000212      0.000160      0.000901
      5.02439      5.80159     17.55670        -0.000135      0.000165     -0.000202
      6.28046      7.97726     17.55785        -0.000034      0.000062     -0.000031
      7.53655     10.15292     17.55798        -0.000072     -0.000048      0.000297
      2.51218     -2.90084     17.55786        -0.000009      0.000029      0.000556
      3.76825     -0.72516     17.55591        -0.000248      0.000065      0.003234
      5.02451      1.45058     17.55301        -0.000522      0.000022      0.004468
      6.28043      3.62591     17.55424        -0.000038      0.000135      0.001599
      7.53651      5.80159     17.55708         0.000174      0.000179     -0.000457
      8.79263      7.97726     17.55810        -0.000005      0.000050     -0.000096
      3.76827     -5.07647     17.55810         0.000026      0.000017      0.000208
      5.02438     -2.90081     17.55734        -0.000075     -0.000052      0.001673
      6.28056     -0.72501     17.55435        -0.000238     -0.000470      0.003933
      7.53639      1.45038     17.55412         0.000085     -0.000080      0.002994
      8.79253      3.62594     17.55610         0.000231      0.000169      0.000342
     10.04869      5.80162     17.55779         0.000068     -0.000005     -0.000365
      5.02435     -7.25210     17.55789        -0.000005      0.000013      0.000334
      6.28047     -5.07645     17.55791        -0.000082     -0.000055      0.000267
      7.53656     -2.90073     17.55692        -0.000093     -0.000141      0.001062
      8.79257     -0.72510     17.55591        -0.000024     -0.000107      0.001428
     10.04860      1.45039     17.55647         0.000133      0.000066      0.000110
     11.30477      3.62600     17.55757         0.000101      0.000142     -0.000272
      6.28046     -9.42773     17.55788        -0.000033      0.000086      0.000113
      7.53658     -7.25209     17.55786        -0.000086     -0.000009      0.000032
      8.79265     -5.07643     17.55800        -0.000009     -0.000012     -0.000253
     10.04871     -2.90078     17.55756         0.000037     -0.000061     -0.000126
     11.30477     -0.72519     17.55750         0.000049      0.000024     -0.000238
     12.56087      1.45040     17.55790         0.000002      0.000041     -0.000292
      7.53656    -11.60333     17.55786        -0.000011      0.000002     -0.000170
      8.79270     -9.42774     17.55725        -0.000199      0.000120     -0.000062
     10.04879     -7.25211     17.55748        -0.000166      0.000070     -0.000343
     11.30483     -5.07646     17.55796        -0.000003      0.000026     -0.000257
     12.56090     -2.90083     17.55790         0.000025     -0.000006      0.000284
     13.81700     -0.72520     17.55803        -0.000042     -0.000014      0.000022
      1.25610      0.72521     17.55723         0.000024      0.000084      0.000125
      2.51219      2.90082     17.55582         0.000170      0.000129      0.000570
      3.76827      5.07646     17.55620         0.000116     -0.000198     -0.000165
      5.02437      7.25207     17.55755        -0.000050     -0.000018     -0.000344
      6.28046      9.42770     17.55782        -0.000033     -0.000017      0.000473
      7.53655     11.60333     17.55786        -0.000062     -0.000046      0.000133
      2.51218     -1.45042     17.55716         0.000012      0.000018      0.000931
      3.76830      0.72520     17.55473         0.000469      0.000186      0.002958
      5.02435      2.90090     17.55174         0.000313     -0.000172      0.002327
      6.28046      5.07644     17.55572        -0.000088     -0.000215     -0.000042
      7.53655      7.25207     17.55776        -0.000033     -0.000012     -0.000363
      8.79264      9.42770     17.55795        -0.000048     -0.000076      0.000207
      3.76828     -3.62603     17.55781        -0.000040     -0.000033      0.000661
      5.02435     -1.45036     17.55576         0.000162      0.000155      0.003213
      6.28031      0.72519     17.55128         0.000214      0.000102      0.004029
      7.53653      2.90079     17.55376        -0.000264     -0.000153      0.001842
      8.79263      5.07643     17.55693        -0.000101     -0.000081     -0.000620
     10.04874      7.25207     17.55804        -0.000087     -0.000042     -0.000118
      5.02437     -5.80167     17.55786        -0.000003     -0.000132      0.000266
      6.28045     -3.62602     17.55737         0.000020      0.000088      0.000858
      7.53653     -1.45040     17.55502        -0.000123      0.000221      0.002408
      8.79257      0.72523     17.55465        -0.000280      0.000101      0.001501
     10.04872      2.90082     17.55655        -0.000108     -0.000074     -0.000413
     11.30482      5.07645     17.55770        -0.000005      0.000003     -0.000044
[...]
      8.79265     -7.97729     17.55745         0.000021     -0.000064     -0.000333
     10.04873     -5.80166     17.55793         0.000033     -0.000015     -0.000397
     11.30482     -3.62603     17.55782        -0.000031     -0.000006     -0.000026
     12.56091     -1.45041     17.55778        -0.000028     -0.000053      0.000078
     13.81700      0.72521     17.55799        -0.000026     -0.000048     -0.000176
      5.17114     -0.76798     23.63552        -0.003427     -0.005283     -0.018660
      5.05474     -0.47885     22.13165        -0.004616     -0.007036     -0.004913
      5.67038      0.88077     21.69699         0.001771      0.005592     -0.003696
      6.45679     -0.85061     24.01360         0.001826      0.003900     -0.005045
      4.57108     -1.93297     23.94489         0.005012     -0.000314      0.009912
      4.58107      0.20706     24.34917        -0.002785      0.002254     -0.008092
      5.66056     -1.52208     21.48526         0.004736      0.004896     -0.006610
      3.72352     -0.54372     21.82958        -0.002330      0.007422     -0.005325
      6.90265      0.86746     21.51087         0.008925     -0.008287     -0.001505
      4.87480      1.83465     21.60668        -0.007392     -0.003171      0.002542
    total drift:                               -0.000636     -0.000040      0.011452

  FREE ENERGIE OF THE ION-ELECTRON SYSTEM (eV)
  free  energy   TOTEN  =      -779.42022742 eV

  energy  without entropy=     -779.38998216  energy(sigma->0) =     -779.40510479

 reached required accuracy - stopping structural energy minimisation
 writing wavefunctions

 total charge

[...]

 magnetization (x)

# of ion       s       p       d       tot
    1        0.000   0.000   0.000   0.000
    2        0.000   0.000   0.000   0.000
    3        0.000   0.000   0.000   0.000
    4        0.000   0.000   0.000   0.000
    5        0.000   0.000   0.000   0.000
    6        0.000   0.000   0.000   0.000
    7        0.000   0.000   0.000   0.000
    8        0.000   0.000   0.000   0.000
    9        0.000   0.000   0.000   0.000
   10        0.000   0.000   0.000   0.000
   11        0.000   0.000   0.000   0.000
   12        0.000   0.000   0.000   0.000
   13        0.000   0.000   0.000   0.000
   14        0.000   0.000   0.000   0.000
   15        0.000   0.000   0.000   0.000
   16        0.000   0.000   0.000   0.000
   17        0.000   0.000   0.000   0.000
   18        0.000   0.000   0.000   0.000
   19        0.000   0.000   0.000   0.000
   20        0.000   0.000   0.000   0.000
   21        0.000   0.000   0.000   0.000
   22        0.000   0.000   0.000   0.000
   23        0.000   0.000   0.000   0.000
   24        0.000   0.000   0.000   0.000
   25        0.000   0.000   0.000   0.000
   26        0.000   0.000   0.000   0.000
   27        0.000   0.000   0.000   0.000
   28        0.000   0.000   0.000   0.000
   29        0.000   0.000   0.000   0.000
   30        0.000   0.000   0.000   0.000
   31        0.000   0.000   0.000   0.000
   32        0.000   0.000   0.000   0.000
   33        0.000   0.000   0.000   0.000
   34        0.000   0.000   0.000   0.000
   35        0.000   0.000   0.000   0.000
   36        0.000   0.000   0.000   0.000
   37       -0.000  -0.002   0.000  -0.002
   38       -0.000  -0.002   0.000  -0.002
   39       -0.000  -0.002   0.000  -0.002
   40       -0.000  -0.002   0.000  -0.002
   41       -0.000  -0.002   0.000  -0.002
   42       -0.000  -0.002   0.000  -0.002
   43       -0.000  -0.002   0.000  -0.002
   44       -0.000  -0.002   0.000  -0.002
   45       -0.000  -0.002   0.000  -0.002
   46       -0.000  -0.002   0.000  -0.002
   47       -0.000  -0.002   0.000  -0.002
   48       -0.000  -0.002   0.000  -0.002
   49       -0.000  -0.002   0.000  -0.002
   50       -0.000  -0.002   0.000  -0.002
   51       -0.000  -0.002   0.000  -0.002
   52       -0.000  -0.002   0.000  -0.002
   53       -0.000  -0.002   0.000  -0.002
   54       -0.000  -0.002   0.000  -0.002
   55       -0.000  -0.002   0.000  -0.002
   56       -0.000  -0.002   0.000  -0.002
   57       -0.000  -0.002   0.000  -0.002
   58       -0.000  -0.002   0.000  -0.002
   59       -0.000  -0.002   0.000  -0.002
   60       -0.000  -0.002   0.000  -0.002
[...]
   68       -0.000  -0.002   0.000  -0.002
   69       -0.000  -0.002   0.000  -0.002
   70       -0.000  -0.002   0.000  -0.002
   71       -0.000  -0.002   0.000  -0.002
   72       -0.000  -0.002   0.000  -0.002
   73       -0.000  -0.000   0.000  -0.000
   74       -0.000  -0.001   0.000  -0.001
   75       -0.001  -0.005   0.000  -0.006
   76        0.000   0.000   0.000   0.000
   77       -0.000  -0.000   0.000  -0.000
   78        0.000   0.000   0.000   0.000
   79        0.000   0.001   0.000   0.001
   80        0.000   0.002   0.000   0.002
   81        0.001   0.070   0.000   0.070
   82        0.001   0.067   0.000   0.068
tot          0.000   0.078   0.000   0.078