 vasp.5.4.4.18Apr17-6-g9f103f2a35 (build May 01 2020 14:57:12) complex

 executed on             LinuxIFC date 2021.01.07  13:44:22

 INCAR:
 POTCAR:    PAW_PBE B 06Sep2000
 POTCAR:    PAW_PBE N 08Apr2002

 POTCAR:    PAW_PBE B 06Sep2000
   VRHFIN =B: s2p1

   TITEL  = PAW_PBE B 06Sep2000
   POMASS =   10.811; ZVAL   =    3.000    mass and valenz
   ENMAX  =  318.614; ENMIN  =  238.960 eV

 POTCAR:    PAW_PBE N 08Apr2002
   VRHFIN =N: s2p3

   TITEL  = PAW_PBE N 08Apr2002
   POMASS =   14.001; ZVAL   =    5.000    mass and valenz
   ENMAX  =  400.000; ENMIN  =  300.000 eV

 Optimization of the real space projectors (new method)

 maximal supplied QI-value         = 22.11
 optimisation between [QCUT,QGAM] = [ 11.94, 23.88] = [ 39.92,159.67] Ry
 Optimized for a Real-space Cutoff    1.18 Angstroem

   l    n(q)    QCUT    max X(q) W(low)/X(q) W(high)/X(q)  e(spline)
   0      8    11.939    53.033    0.11E-03    0.34E-03    0.60E-07
   0      8    11.939    34.740    0.11E-03    0.34E-03    0.59E-07
   1      8    11.939    30.949    0.22E-03    0.20E-03    0.17E-06
   1      8    11.939    19.518    0.20E-03    0.18E-03    0.16E-06
 Optimization of the real space projectors (new method)

 maximal supplied QI-value         = 25.13
 optimisation between [QCUT,QGAM] = [ 11.81, 23.88] = [ 39.08,159.64] Ry
 Optimized for a Real-space Cutoff    1.41 Angstroem

   l    n(q)    QCUT    max X(q) W(low)/X(q) W(high)/X(q)  e(spline)
   0     10    11.813    79.467    0.48E-04    0.30E-04    0.67E-06
   0     10    11.813    66.151    0.47E-04    0.30E-04    0.67E-06
   1     10    11.813    20.169    0.11E-03    0.17E-03    0.11E-05
   1     10    11.813    14.454    0.11E-03    0.17E-03    0.11E-05
  PAW_PBE B 06Sep2000                   :
  PAW_PBE N 08Apr2002                   :

 POSCAR: B N
  positions in direct lattice
  velocities in cartesian coordinates

 METAGGA = SCAN     LMAXTAU =  6    LMIXTAU =  F

 ion  position               nearest neighbor table
   1  0.169  0.085  0.500-  17 1.45  20 1.47  21 1.48
   2  0.169  0.334  0.500-  17 1.45  18 1.47  22 1.48
   3  0.167  0.583  0.500-  23 1.45  19 1.45  18 1.45
   4  0.167  0.833  0.500-  24 1.45  19 1.45  20 1.45
   5  0.417  0.083  0.500-  25 1.44  21 1.44  24 1.45
   6  0.428  0.339  0.500-  21 1.46  22 1.46
   7  0.417  0.583  0.500-  26 1.44  22 1.44  23 1.45
   8  0.417  0.833  0.500-  23 1.45  24 1.45  27 1.45
   9  0.666  0.085  0.500-  28 1.45  27 1.47  25 1.48
  10  0.661  0.339  0.500-  25 1.46  29 1.46
  11  0.661  0.572  0.500-  30 1.46  26 1.46
  12  0.666  0.831  0.500-  31 1.45  27 1.47  26 1.48
  13  0.917  0.083  0.500-  17 1.46  31 1.46  28 1.46
  14  0.915  0.334  0.500-  28 1.45  18 1.47  29 1.48
  15  0.917  0.583  0.500-  29 1.44  30 1.44  19 1.45
  16  0.915  0.831  0.500-  31 1.45  20 1.47  30 1.48
  17  0.084  0.167  0.500-   2 1.45   1 1.45  13 1.46
  18  0.083  0.417  0.500-   3 1.45  14 1.47   2 1.47
  19  0.083  0.667  0.500-  15 1.45   4 1.45   3 1.45
  20  0.083  0.917  0.500-   4 1.45   1 1.47  16 1.47
  21  0.339  0.171  0.500-   5 1.44   6 1.46   1 1.48
  22  0.339  0.418  0.500-   7 1.44   6 1.46   2 1.48
  23  0.333  0.667  0.500-   7 1.45   3 1.45   8 1.45
  24  0.333  0.917  0.500-   5 1.45   4 1.45   8 1.45
  25  0.582  0.171  0.500-   5 1.44  10 1.46   9 1.48
  26  0.582  0.661  0.500-   7 1.44  11 1.46  12 1.48
  27  0.583  0.917  0.500-   8 1.45   9 1.47  12 1.47
  28  0.833  0.167  0.500-   9 1.45  14 1.45  13 1.46
  29  0.829  0.418  0.500-  15 1.44  10 1.46  14 1.48
  30  0.829  0.661  0.500-  15 1.44  11 1.46  16 1.48
  31  0.833  0.916  0.500-  12 1.45  16 1.45  13 1.46

  LATTYP: Found a hexagonal cell.
 ALAT       =    10.0487671536
 C/A-ratio  =     3.4944251219

  Lattice vectors:

 A1 = (   5.0243667045,  -8.7024973730,   0.0000000000)
 A2 = (   5.0243667045,   8.7024973730,   0.0000000000)
 A3 = (   0.0000000000,   0.0000000000,  35.1146643856)

Analysis of symmetry for initial positions (statically):
 Subroutine PRICEL returns:
 Original cell was already a primitive cell.

 Routine SETGRP: Setting up the symmetry group for a
 hexagonal supercell.

 Subroutine GETGRP returns: Found 12 space group operations
 (whereof  4 operations were pure point group operations)
 out of a pool of 24 trial point group operations.

The static configuration has the point symmetry C_2v.
 The point group associated with its full space group is D_3h.

Analysis of symmetry for dynamics (positions and initial velocities):
 Subroutine PRICEL returns:
 Original cell was already a primitive cell.

[...]

The dynamic configuration has the point symmetry C_2v.
 The point group associated with its full space group is D_3h.

Analysis of constrained symmetry for selective dynamics:
 Subroutine PRICEL returns:
 Original cell was already a primitive cell.

[...]

The constrained configuration has the point symmetry C_2v.
 The point group associated with its full space group is D_3h.

Analysis of structural, dynamic, and magnetic symmetry:
 Subroutine PRICEL returns:
 Original cell was already a primitive cell.

 Routine SETGRP: Setting up the symmetry group for a
 hexagonal supercell.

 Subroutine GETGRP returns: Found 12 space group operations
 (whereof  4 operations were pure point group operations)
 out of a pool of 24 trial point group operations.

The magnetic configuration has the point symmetry C_2v.
 The point group associated with its full space group is D_3h.

 Subroutine INISYM returns: Found 12 space group operations
 (whereof  4 operations are pure point group operations),
 and found     1 'primitive' translations

 KPOINTS: K-Point Grid

Automatic generation of k-mesh.
Space group operators:
 irot       det(A)        alpha          n_x          n_y          n_z        tau_x        tau_y        tau_z
    1     1.000000     0.000000     1.000000     0.000000     0.000000     0.000000     0.000000     0.000000
    2    -1.000000   180.000000     0.000000     0.000000     1.000000     0.000000     0.000000     0.000000
    3     1.000000   180.000000     0.000000     1.000000     0.000000     0.000000     0.000000     0.000000
    4    -1.000000   180.000000     1.000000     0.000000     0.000000     0.000000     0.000000     0.000000
    5    -1.000000    60.000000     0.000000     0.000000    -1.000000     0.750001     0.000001     0.000000
    6     1.000000   120.000000     0.000000     0.000000    -1.000000     0.000001     0.250000     0.000000
    7     1.000000   120.000000     0.000000     0.000000     1.000000     0.750001     0.000001     0.000000
    8    -1.000000    60.000000     0.000000     0.000000     1.000000     0.000001     0.250000     0.000000
    9    -1.000000   180.000000     0.500002    -0.866024     0.000000     0.750001     0.000000     0.000000
   10    -1.000000   180.000000    -0.500002    -0.866024     0.000000     0.000000     0.250000     0.000000
   11     1.000000   180.000000     0.866026     0.499998     0.000000     0.750001     0.000000     0.000000
   12     1.000000   180.000000     0.866026    -0.499998     0.000000     0.000000     0.250000     0.000000

 Subroutine IBZKPT returns following result:

 Found      6 irreducible k-points:

 Following reciprocal coordinates:
            Coordinates               Weight
  0.125000  0.125000  0.000000     48.000000
  0.375000  0.125000  0.000000     96.000000
 -0.375000  0.125000  0.000000     96.000000
 -0.125000  0.125000  0.000000     48.000000
  0.375000  0.375000  0.000000     48.000000
 -0.375000  0.375000  0.000000     48.000000

 Following cartesian coordinates:
            Coordinates               Weight
  0.024879  0.000000  0.000000     48.000000
  0.049758 -0.014364  0.000000     96.000000
 -0.024879  0.028727  0.000000     96.000000
  0.000000  0.014364  0.000000     48.000000
  0.074636  0.000000  0.000000     48.000000
  0.000000  0.043091  0.000000     48.000000

 SYSTEM =  SiC
 POSCAR =  B N

 Startparameter for this run:
   NWRITE =      2    write-flag & timer
   PREC   = accura    normal or accurate (medium, high low for compatibility)
   ISTART =      1    job   : 0-new  1-cont  2-samecut
   ICHARG =      0    charge: 1-file 2-atom 10-const
   ISPIN  =      2    spin polarized calculation?
   LNONCOLLINEAR =      F non collinear calculations
   LSORBIT =      F    spin-orbit coupling
   INIWAV =      1    electr: 0-lowe 1-rand  2-diag
   LASPH  =      T    aspherical Exc in radial PAW
   METAGGA=      F    non-selfconsistent MetaGGA calc.

 Electronic Relaxation 1
   ENCUT  =  550.0 eV  40.42 Ry    6.36 a.u.  19.22 19.22 67.15*2*pi/ulx,y,z
   ENINI  =  550.0     initial cutoff
   ENAUG  =  627.1 eV  augmentation charge cutoff
   NELM   =    100;   NELMIN=  2; NELMDL=  0     # of ELM steps
   EDIFF  = 0.1E-04   stopping-criterion for ELM
   LREAL  =      T    real-space projection
   NLSPLINE    = F    spline interpolate recip. space projectors
   LCOMPAT=      F    compatible to vasp.4.4
   GGA_COMPAT  = T    GGA compatible to vasp.4.4-vasp.4.6
   LMAXPAW     = -100 max onsite density
   LMAXMIX     =    2 max onsite mixed and CHGCAR
   VOSKOWN=      0    Vosko Wilk Nusair interpolation
   ROPT   =   -0.00025  -0.00025
 Ionic relaxation
   EDIFFG = -.2E-01   stopping-criterion for IOM
   NSW    =    500    number of steps for IOM
   NBLOCK =      1;   KBLOCK =    500    inner block; outer block
   IBRION =      2    ionic relax: 0-MD 1-quasi-New 2-CG
   NFREE  =      1    steps in history (QN), initial steepest desc. (CG)
   ISIF   =      2    stress and relaxation
   IWAVPR =     11    prediction:  0-non 1-charg 2-wave 3-comb
   ISYM   =      2    0-nonsym 1-usesym 2-fastsym
   LCORR  =      T    Harris-Foulkes like correction to forces

   POTIM  = 0.5000    time-step for ionic-motion
   TEIN   =    0.0    initial temperature
   TEBEG  =    0.0;   TEEND  =   0.0 temperature during run
   SMASS  =  -3.00    Nose mass-parameter (am)
   estimated Nose-frequenzy (Omega)   =  0.10E-29 period in steps =****** mass=  -0.231E-26a.u.
   SCALEE = 1.0000    scale energy and forces
   NPACO  =    256;   APACO  = 16.0  distance and # of slots for P.C.
   PSTRESS=    0.0 pullay stress

  Mass of Ions in am
   POMASS =  10.81 14.00
  Ionic Valenz
   ZVAL   =   3.00  5.00
  Atomic Wigner-Seitz radii
  virtual crystal weights
   VCA    =   1.00  1.00
   NELECT =     123.0000    total number of electrons
   NUPDOWN=      -1.0000    fix difference up-down

 DOS related values:
   EMIN   =  10.00;   EMAX   =-10.00  energy-range for DOS
   EFERMI =   0.00
   ISMEAR =     0;   SIGMA  =   0.05  broadening in eV -4-tet -1-fermi 0-gaus

 Electronic relaxation 2 (details)
   IALGO  =     68    algorithm
   LDIAG  =      T    sub-space diagonalisation (order eigenvalues)
   LSUBROT=      F    optimize rotation matrix (better conditioning)
   TURBO    =      0    0=normal 1=particle mesh
   IRESTART =      0    0=no restart 2=restart with 2 vectors
   NREBOOT  =      0    no. of reboots
   NMIN     =      0    reboot dimension
   EREF     =   0.00    reference energy to select bands
   IMIX   =      4    mixing-type and parameters
     AMIX     =   0.40;   BMIX     =  1.00
     AMIX_MAG =   1.60;   BMIX_MAG =  1.00
[...]

[...]

 d Force = 0.1172536E-04[ 0.671E-05, 0.167E-04]  d Energy = 0.1573011E-04-0.400E-05
 d Force =-0.8791870E-01[-0.880E-01,-0.879E-01]  d Ewald  =-0.8791870E-01 0.538E-09

[...]

 d Force =-0.8022991E-05[-0.295E-04, 0.134E-04]  d Energy = 0.5511931E-05-0.135E-04
 d Force =-0.1760757E+00[-0.176E+00,-0.176E+00]  d Ewald  =-0.1760757E+00 0.416E-08

[...]

 d Force = 0.9106084E-05[-0.203E-05, 0.202E-04]  d Energy = 0.6394717E-05 0.271E-05
 d Force = 0.1210258E+00[ 0.121E+00, 0.121E+00]  d Ewald  = 0.1210258E+00-0.139E-08

 real space projection operators:
  max/ min on nodes  :       1691.12       1567.38

[...]

 eigenvalue-minimisations  :  2304
 total energy-change (2. order) :-0.3151590E-04  (-0.8032873E-04)
 number of electron     122.9999990 magnetization       1.0000000
 augmentation part        3.3674312 magnetization       0.0217985

 Broyden mixing:
  rms(total) = 0.27267E-02    rms(broyden)= 0.27258E-02
  rms(prec ) = 0.27853E-02
  weight for this iteration     100.00

 eigenvalues of (default mixing * dielectric matrix)
  average eigenvalue GAMMA=   0.8639
  0.8639

[...]

--------------------------------------- Iteration     10(   3)  ---------------------------------------

 eigenvalue-minimisations  :  1816
 total energy-change (2. order) : 0.1236804E-05  (-0.3545310E-05)
 number of electron     122.9999990 magnetization       1.0000000
 augmentation part        3.3674312 magnetization       0.0217985

 Free energy of the ion-electron system (eV)
  alpha Z        PSCENC =        27.64405752
  Ewald energy   TEWEN  =     37736.14040463
  -Hartree energ DENC   =    -42056.64147472
  -exchange      EXHF   =         0.00000000
  -V(xc)+E(xc)   XCENC  =       525.15152191
  PAW double counting   =     14352.55640408   -14405.61788073
  entropy T*S    EENTRO =        -0.00000000
  eigenvalues    EBANDS =     -1671.47966407
  atomic energy  EATOM  =      5106.76452789
  Solvation  Ediel_sol  =        89.39227800
  free energy    TOTEN  =      -296.08982549 eV

  energy without entropy =     -296.08982549  energy(sigma->0) =     -296.08982549

 average (electrostatic) potential at core
  the test charge radii are     0.7672  0.7089
  (the norm of the test charge is              1.0000)
       1 -38.8375       2 -38.8375       3 -38.6195       4 -38.6195       5 -38.5607
       6 -39.3813       7 -38.5607       8 -38.6195       9 -38.8375      10 -39.3813
      11 -39.3812      12 -38.8375      13 -38.7819      14 -38.8375      15 -38.5607
      16 -38.8375      17 -76.2786      18 -76.2536      19 -76.1953      20 -76.2536
      21 -76.4161      22 -76.4161      23 -76.1953      24 -76.1953      25 -76.4161
      26 -76.4161      27 -76.2536      28 -76.2786      29 -76.4161      30 -76.4161
      31 -76.2786

 E-fermi :  -2.9538     XC(G=0):  -1.1938     alpha+bet : -1.0027

[...]

 spin component 2

[...]

 k-point     6 :      -0.3750    0.3750    0.0000
  band No.  band energies     occupation
      1     -24.6173      1.00000
      2     -24.3014      1.00000
      3     -23.9381      1.00000
      4     -23.7754      1.00000
      5     -23.1162      1.00000
      6     -23.0210      1.00000
      7     -22.7581      1.00000
      8     -22.6248      1.00000
      9     -22.4212      1.00000
     10     -22.1129      1.00000
     11     -21.8302      1.00000
     12     -21.7893      1.00000
     13     -21.7652      1.00000
     14     -21.4703      1.00000
     15     -21.2947      1.00000
     16     -15.2101      1.00000
     17     -15.0086      1.00000
     18     -14.9075      1.00000
     19     -14.6420      1.00000
     20     -14.6215      1.00000
     21     -14.3838      1.00000
     22     -14.2981      1.00000
     23     -13.9416      1.00000
     24     -13.2817      1.00000
     25     -13.1577      1.00000
     26     -13.0075      1.00000
     27     -12.7462      1.00000
     28     -12.6148      1.00000
     29     -12.2712      1.00000
     30     -11.5627      1.00000
     31     -11.4912      1.00000
     32     -11.1938      1.00000
     33     -11.1805      1.00000
     34     -11.0159      1.00000
     35     -10.9646      1.00000
     36     -10.7954      1.00000
     37     -10.7689      1.00000
     38     -10.4716      1.00000
     39     -10.4421      1.00000
     40     -10.2573      1.00000
     41     -10.1356      1.00000
     42     -10.0591      1.00000
     43     -10.0311      1.00000
     44      -9.8470      1.00000
     45      -9.5607      1.00000
     46      -9.2429      1.00000
     47      -9.1350      1.00000
     48      -8.9941      1.00000
     49      -8.8528      1.00000
     50      -8.7086      1.00000
     51      -8.6068      1.00000
     52      -8.4481      1.00000
     53      -8.1789      1.00000
     54      -8.1216      1.00000
     55      -7.6799      1.00000
     56      -7.6653      1.00000
     57      -7.2611      1.00000
     58      -7.1969      1.00000
     59      -7.1773      1.00000
     60      -6.7260      1.00000
[...]
     82       0.8975      0.00000
     83       1.0114      0.00000
     84       1.0232      0.00000
     85       1.1929      0.00000
     86       1.2650      0.00000
     87       1.2731      0.00000
     88       1.3792      0.00000
     89       1.3802      0.00000
     90       1.3997      0.00000
     91       1.4058      0.00000
     92       1.4982      0.00000
     93       1.6018      0.00000
     94       1.6156      0.00000
     95       1.6895      0.00000
     96       1.7521      0.00000

[...]

 soft charge-density along one line, spin component           2
         0         1         2         3         4         5         6         7         8         9
 total charge-density along one line

------------------------ aborting loop because EDIFF is reached ----------------------------------------

[...]

  FORCE on cell =-STRESS in cart. coord.  units (eV):
  Direction    XX          YY          ZZ          XY          YZ          ZX
  Alpha Z    27.64406    27.64406    27.64406
  Ewald   41769.79670 41769.79180-45803.45303    -0.00000     0.00000     0.00000
  Hartree 41546.38444 41546.38489-41036.13796     0.00010     0.00000    -0.00000
  E(xc)    -487.80036  -487.80036  -492.01277     0.01239     0.00003    -0.00000
  Local  -84606.38079-84606.38777 85314.15712     0.00171     0.00001    -0.00001
  n-local  -220.66890  -220.66811  -223.33441     0.01431    -0.00001    -0.00000
  augment    15.88037    15.88065    18.81717     0.00002    -0.00000    -0.00000
  Kinetic  1930.29645  1930.29273  2194.05216     0.34706     0.00003     0.00004
  Fock        0.00000     0.00000     0.00000     0.00000     0.00000     0.00000
  Total     -24.85496   -24.85518    -0.26766    -0.00000    -0.00000     0.00000
  in kB     -12.96821   -12.96832    -0.13965    -0.00000    -0.00000     0.00000

 VOLUME and BASIS-vectors are now :
  energy-cutoff  :      550.00
  volume of cell :     3070.74
      direct lattice vectors                 reciprocal lattice vectors
     5.024366704 -8.702497373  0.000000000     0.099515029 -0.057454772  0.000000000
     5.024366704  8.702497373  0.000000000     0.099515029  0.057454772  0.000000000
     0.000000000  0.000000000 35.114664386     0.000000000  0.000000000  0.028478131

  length of vectors
    10.048767154 10.048767154 35.114664386     0.114909929  0.114909929  0.028478131

 FORCES acting on ions
    electron-ion (+dipol)            ewald-force                    non-local-force                 convergence-correction
   -.957E+01 0.484E+01 -.398E-04   0.947E+01 -.452E+01 -.204E-18   0.265E+00 -.333E+00 -.529E-22   0.121E-02 -.130E-03 -.664E-08
   -.897E+01 0.587E+01 0.842E-04   0.865E+01 -.594E+01 -.592E-19   0.420E+00 -.629E-01 0.265E-22   0.719E-03 -.985E-03 0.126E-07
   0.248E+01 0.143E+01 0.273E-04   -.248E+01 -.143E+01 0.450E-18   0.455E-03 0.263E-03 0.000E+00   0.947E-03 0.547E-03 0.722E-08
   0.145E-03 -.286E+01 -.374E-04   -.154E-10 0.286E+01 0.264E-18   -.501E-18 -.525E-03 0.000E+00   0.498E-07 -.109E-02 -.171E-07
   -.118E+02 -.680E+01 0.404E-04   0.121E+02 0.696E+01 -.100E-18   -.289E-01 -.167E-01 0.000E+00   -.179E-02 -.103E-02 0.111E-07
   -.825E+02 0.477E+02 0.136E-03   0.802E+02 -.463E+02 -.869E-19   0.236E+01 -.137E+01 -.529E-22   -.516E-02 0.298E-02 0.138E-08
   0.137E-03 0.136E+02 -.822E-04   -.109E-10 -.139E+02 0.342E-18   -.651E-18 0.334E-01 0.000E+00   -.829E-08 0.207E-02 -.150E-07
   -.248E+01 0.143E+01 0.106E-04   0.248E+01 -.143E+01 0.401E-18   -.455E-03 0.263E-03 -.199E-22   -.947E-03 0.547E-03 0.993E-08
   -.594E+00 -.107E+02 0.327E-04   0.819E+00 0.105E+02 -.214E-18   -.156E+00 0.396E+00 0.000E+00   0.494E-03 0.112E-02 -.545E-09
   0.327E-03 -.953E+02 -.193E-03   0.209E-10 0.926E+02 -.186E-18   0.000E+00 0.273E+01 0.000E+00   -.106E-06 -.595E-02 -.418E-08
   0.825E+02 0.477E+02 0.601E-04   -.802E+02 -.463E+02 0.243E-19   -.236E+01 -.137E+01 -.212E-21   0.516E-02 0.298E-02 0.274E-08
   0.897E+01 0.587E+01 -.935E-05   -.865E+01 -.594E+01 -.616E-19   -.420E+00 -.629E-01 0.000E+00   -.719E-03 -.985E-03 0.222E-07
   0.109E-03 -.441E-03 -.838E-06   -.107E-11 0.723E-03 -.362E-18   -.506E-18 -.205E-17 0.000E+00   0.208E-06 0.246E-06 -.683E-10
   0.595E+00 -.107E+02 -.726E-04   -.819E+00 0.105E+02 -.250E-18   0.156E+00 0.396E+00 0.000E+00   -.494E-03 0.111E-02 -.914E-08
   0.118E+02 -.680E+01 0.421E-04   -.121E+02 0.696E+01 0.579E-19   0.289E-01 -.167E-01 0.000E+00   0.179E-02 -.103E-02 0.392E-08
   0.957E+01 0.484E+01 0.143E-05   -.947E+01 -.452E+01 -.175E-18   -.265E+00 -.333E+00 -.993E-23   -.121E-02 -.130E-03 -.184E-07
   -.588E+01 0.339E+01 -.469E-04   0.575E+01 -.332E+01 -.430E-18   0.303E+00 -.175E+00 0.000E+00   0.161E-01 -.928E-02 0.176E-07
   0.401E+01 0.231E+01 0.112E-03   -.424E+01 -.245E+01 0.268E-18   0.269E+00 0.155E+00 0.000E+00   0.124E-01 0.718E-02 0.271E-07
   0.785E+01 -.453E+01 -.517E-04   -.775E+01 0.447E+01 0.506E-18   -.247E+00 0.143E+00 -.212E-21   0.124E-01 -.717E-02 0.115E-07
   -.138E-02 -.463E+01 -.991E-04   -.444E-11 0.490E+01 -.191E-18   0.173E-17 -.311E+00 0.000E+00   0.321E-06 -.144E-01 -.109E-06
   -.406E+02 -.853E+01 -.762E-04   0.406E+02 0.885E+01 -.182E-18   0.680E+00 -.328E+00 0.000E+00   -.532E-02 0.616E-02 0.120E-07
   -.129E+02 0.395E+02 -.327E-04   0.126E+02 -.395E+02 0.235E-18   0.624E+00 -.425E+00 0.000E+00   -.800E-02 0.153E-02 0.166E-07
   -.137E-02 0.907E+01 -.325E-04   0.179E-10 -.895E+01 0.896E-18   0.867E-18 -.285E+00 0.529E-22   0.127E-06 0.143E-01 -.353E-07
   -.785E+01 -.453E+01 0.841E-04   0.775E+01 0.447E+01 0.304E-18   0.247E+00 0.143E+00 0.000E+00   -.124E-01 -.717E-02 0.238E-07
   -.277E+02 -.309E+02 0.698E-04   0.279E+02 0.307E+02 -.314E-18   0.563E-01 0.753E+00 0.000E+00   0.268E-02 -.769E-02 -.221E-08
   0.129E+02 0.395E+02 0.101E-03   -.126E+02 -.395E+02 0.214E-18   -.624E+00 -.425E+00 -.106E-21   0.800E-02 0.153E-02 -.136E-07
   -.401E+01 0.231E+01 -.134E-04   0.424E+01 -.245E+01 0.135E-18   -.269E+00 0.155E+00 0.238E-21   -.124E-01 0.718E-02 0.821E-07
   -.136E-02 -.679E+01 -.420E-04   -.333E-11 0.664E+01 -.495E-18   0.000E+00 0.350E+00 0.000E+00   0.448E-07 0.186E-01 -.332E-07
   0.277E+02 -.309E+02 0.502E-04   -.279E+02 0.307E+02 -.257E-18   -.563E-01 0.753E+00 -.847E-21   -.268E-02 -.769E-02 -.354E-07
   0.406E+02 -.853E+01 -.111E-03   -.406E+02 0.885E+01 -.221E-18   -.680E+00 -.328E+00 0.000E+00   0.532E-02 0.616E-02 0.228E-07
   0.588E+01 0.339E+01 0.886E-04   -.575E+01 -.332E+01 -.310E-18   -.303E+00 -.175E+00 0.000E+00   -.161E-01 -.928E-02 0.156E-07
   -.233E-01 -.146E-01 -.769E-06   0.222E-13 0.107E-12 0.000E+00   -.611E-15 -.555E-16 -.119E-20   0.178E-06 0.370E-06 -.164E-09

 POSITION                                       TOTAL-FORCE (eV/Angst)
      1.27441     -0.72895     17.55733         0.013800     -0.002707      0.000000
      2.52459      1.43642     17.55733         0.009244     -0.010598     -0.000000
      3.76922      3.62658     17.55733         0.001361      0.000786      0.000000
      5.02437      5.80058     17.55733         0.000000     -0.001572     -0.000000
      2.50904     -2.90265     17.55733         0.006592      0.003806      0.000000
      3.84063     -0.76698     17.55733        -0.008239      0.004757     -0.000000
      5.02437      1.45406     17.55733         0.000000     -0.007611      0.000000
      6.27953      3.62658     17.55733        -0.001361      0.000786      0.000000
      3.77420     -5.05872     17.55733         0.004556      0.013305      0.000000
      5.02437     -2.81729     17.55733         0.000000     -0.009513     -0.000000
      6.20812     -0.76698     17.55733         0.008239      0.004757     -0.000000
      7.52416      1.43642     17.55733        -0.009244     -0.010598      0.000000
      5.02437     -7.25208     17.55733         0.000000     -0.000000      0.000000
      6.27454     -5.05872     17.55733        -0.004556      0.013305      0.000000
      7.53971     -2.90265     17.55733        -0.006592      0.003806      0.000000
      8.77433     -0.72895     17.55733        -0.013800     -0.002707      0.000000
      1.26344      0.72097     17.55733        -0.012478      0.007204     -0.000000
      2.51240      2.90095     17.55733        -0.004293     -0.002479      0.000000
      3.76820      5.07650     17.55733         0.006658     -0.003844      0.000000
      5.02437      7.25184     17.55733         0.000000      0.004957      0.000000
      2.55688     -1.46084     17.55733        -0.000320      0.000904      0.000000
      3.79966      0.69172     17.55733        -0.000943     -0.000175      0.000000
      5.02437      2.90074     17.55733         0.000000      0.007688     -0.000000
      6.28054      5.07650     17.55733        -0.006658     -0.003844      0.000000
      3.78160     -3.58212     17.55733         0.000623     -0.000729      0.000000
      6.24909      0.69172     17.55733         0.000943     -0.000175      0.000000
      7.53635      2.90095     17.55733         0.004293     -0.002479      0.000000
      5.02437     -5.79318     17.55733         0.000000     -0.014409      0.000000
      6.26715     -3.58212     17.55733        -0.000623     -0.000729     -0.000000
      7.49186     -1.46084     17.55733         0.000320      0.000904      0.000000
      8.78530      0.72097     17.55733         0.012478      0.007204      0.000000
    total drift:                               -0.023328     -0.014616     -0.000001

  FREE ENERGIE OF THE ION-ELECTRON SYSTEM (eV)
  free  energy   TOTEN  =      -296.08982549 eV

  energy  without entropy=     -296.08982549  energy(sigma->0) =     -296.08982549

 d Force = 0.1886348E-03[-0.503E-04, 0.428E-03]  d Energy = 0.1847694E-03 0.387E-05
 d Force =-0.4483628E+00[-0.450E+00,-0.446E+00]  d Ewald  =-0.4483627E+00-0.324E-07

 Conjugate gradient step on ions:
 trial-energy change:   -0.000185  1 .order   -0.000189   -0.000428    0.000050
  (g-gl).g = 0.937E-03      g.g   = 0.850E-03  gl.gl    = 0.285E-02
 g(Force)  = 0.850E-03   g(Stress)= 0.000E+00 ortho     = 0.332E-04
 gamma     =   0.32863
 trial     =   0.49633
 opt step  =   0.44411  (harmonic =   0.44411) maximal distance =0.00089423
 next E    =  -296.089832   (d E  =  -0.00019)

 reached required accuracy - stopping structural energy minimisation
 writing wavefunctions

 total charge

[...]

 magnetization (x)

# of ion       s       p       d       tot
    1        0.000   0.003   0.000   0.003
    2        0.000   0.003   0.000   0.004
    3        0.001   0.005   0.000   0.006
    4        0.001   0.008   0.000   0.009
    5        0.003   0.028   0.000   0.031
    6        0.005   0.081   0.000   0.086
    7        0.003   0.027   0.000   0.029
    8        0.001   0.011   0.000   0.012
    9        0.000   0.003   0.000   0.003
   10        0.005   0.081   0.000   0.086
   11        0.005   0.080   0.000   0.085
   12        0.000   0.004   0.000   0.004
   13        0.000   0.003   0.000   0.003
   14        0.000   0.004   0.000   0.004
   15        0.003   0.025   0.000   0.028
   16        0.000   0.004   0.000   0.005
   17        0.000   0.003   0.000   0.003
   18       -0.000  -0.003   0.000  -0.003
   19       -0.000  -0.000   0.000  -0.000
   20       -0.000  -0.003   0.000  -0.003
   21       -0.000  -0.002   0.000  -0.002
   22       -0.000  -0.002   0.000  -0.002
   23       -0.000  -0.001   0.000  -0.001
   24       -0.000  -0.002   0.000  -0.002
   25       -0.000  -0.002   0.000  -0.002
   26       -0.000  -0.002   0.000  -0.002
   27       -0.000  -0.003   0.000  -0.003
   28        0.000   0.002   0.000   0.002
   29       -0.000  -0.002   0.000  -0.002
   30       -0.000  -0.002   0.000  -0.002
   31        0.000   0.001   0.000   0.001
tot          0.023   0.355   0.000   0.378