 vasp.5.4.4.18Apr17-6-g9f103f2a35 (build Jun 11 2020 13:42:08) complex

 executed on             LinuxIFC date 2020.11.06  07:02:10

 INCAR:
 POTCAR:    PAW_PBE B 06Sep2000
 POTCAR:    PAW_PBE C 08Apr2002
 POTCAR:    PAW_PBE F 08Apr2002
 POTCAR:    PAW_PBE N 08Apr2002
 POTCAR:    PAW_PBE O 08Apr2002

 POTCAR:    PAW_PBE B 06Sep2000
   VRHFIN =B: s2p1

   TITEL  = PAW_PBE B 06Sep2000
   POMASS =   10.811; ZVAL   =    3.000    mass and valenz
   ENMAX  =  318.614; ENMIN  =  238.960 eV

 POTCAR:    PAW_PBE C 08Apr2002
   VRHFIN =C: s2p2

   TITEL  = PAW_PBE C 08Apr2002
   POMASS =   12.011; ZVAL   =    4.000    mass and valenz
   ENMAX  =  400.000; ENMIN  =  300.000 eV

 POTCAR:    PAW_PBE F 08Apr2002
   VRHFIN =F: s2p5

[...]

 POTCAR:    PAW_PBE N 08Apr2002
   VRHFIN =N: s2p3

[...]

 POTCAR:    PAW_PBE O 08Apr2002
   VRHFIN =O: s2p4

   TITEL  = PAW_PBE O 08Apr2002
   POMASS =   16.000; ZVAL   =    6.000    mass and valenz
   ENMAX  =  400.000; ENMIN  =  300.000 eV

 Optimization of the real space projectors (new method)

 maximal supplied QI-value         = 22.11
 optimisation between [QCUT,QGAM] = [ 11.94, 23.88] = [ 39.92,159.67] Ry
 Optimized for a Real-space Cutoff    1.18 Angstroem

   l    n(q)    QCUT    max X(q) W(low)/X(q) W(high)/X(q)  e(spline)
   0      8    11.939    53.033    0.11E-03    0.34E-03    0.60E-07
   0      8    11.939    34.740    0.11E-03    0.34E-03    0.59E-07
   1      8    11.939    30.949    0.22E-03    0.20E-03    0.17E-06
   1      8    11.939    19.518    0.20E-03    0.18E-03    0.16E-06
 Optimization of the real space projectors (new method)

[...]

   l    n(q)    QCUT    max X(q) W(low)/X(q) W(high)/X(q)  e(spline)
   0     10    11.813    79.467    0.48E-04    0.30E-04    0.67E-06
   0     10    11.813    66.151    0.47E-04    0.30E-04    0.67E-06
   1     10    11.813    20.169    0.11E-03    0.17E-03    0.11E-05
   1     10    11.813    14.454    0.11E-03    0.17E-03    0.11E-05
 Optimization of the real space projectors (new method)

 maximal supplied QI-value         = 24.76
 optimisation between [QCUT,QGAM] = [ 11.88, 24.01] = [ 39.54,161.47] Ry
 Optimized for a Real-space Cutoff    1.18 Angstroem

   l    n(q)    QCUT    max X(q) W(low)/X(q) W(high)/X(q)  e(spline)
   0      8    11.883    20.381    0.86E-04    0.11E-03    0.31E-06
   0      8    11.883    15.268    0.94E-04    0.12E-03    0.33E-06
   1      8    11.883     5.964    0.19E-03    0.18E-04    0.33E-06
   1      8    11.883     5.382    0.17E-03    0.20E-04    0.29E-06
  PAW_PBE B 06Sep2000                   :
  PAW_PBE C 08Apr2002                   :
  PAW_PBE F 08Apr2002                   :
  PAW_PBE N 08Apr2002                   :
  PAW_PBE O 08Apr2002                   :

 POSCAR: B C F N O
  positions in direct lattice
  velocities in cartesian coordinates

 METAGGA = SCAN     LMAXTAU =  6    LMIXTAU =  F

 VTST: version 3.1, (03/28/14)

 CHAIN: initializing optimizer

 OPT: Using VASP Conjugate-Gradient optimizer
 CHAIN: Read ICHAIN            0

 POSCAR: B C F N O
  positions in direct lattice
  velocities in cartesian coordinates

 ion  position               nearest neighbor table
   1  0.083  0.041  0.501-  92 1.45  73 1.45  77 1.45
   2  0.083  0.166  0.501-  73 1.45  74 1.45  78 1.45
   3  0.083  0.291  0.501-  74 1.45  75 1.45  79 1.45
   4  0.083  0.416  0.501-  75 1.45  76 1.45  80 1.45
   5  0.208  0.041  0.501-  96 1.45  81 1.45  77 1.45
   6  0.208  0.166  0.501-  77 1.45  82 1.45  78 1.45
   7  0.208  0.291  0.501-  79 1.45  78 1.45  83 1.45
   8  0.208  0.416  0.501-  80 1.45  79 1.45  84 1.45
   9  0.333  0.041  0.501- 100 1.45  85 1.45  81 1.45
  10  0.333  0.166  0.501-  81 1.45  86 1.45  82 1.45
  11  0.333  0.291  0.501-  87 1.45  82 1.45  83 1.45
  12  0.333  0.416  0.501-  88 1.45  84 1.45  83 1.45
  13  0.458  0.041  0.501- 104 1.45 105 1.45  85 1.45
  14  0.458  0.166  0.501-  85 1.45 106 1.45  86 1.45
  15  0.458  0.291  0.501- 107 1.45  86 1.45  87 1.45
  16  0.458  0.416  0.501- 108 1.45  87 1.45  88 1.45
  17  0.083  0.541  0.501-  76 1.45  93 1.45  89 1.45
  18  0.083  0.666  0.501-  89 1.45  94 1.45  90 1.45
  19  0.083  0.791  0.501-  90 1.45  95 1.45  91 1.45
  20  0.083  0.916  0.501-  91 1.45  96 1.45  92 1.45
  21  0.208  0.541  0.501-  80 1.45  97 1.45  93 1.45
  22  0.208  0.666  0.501-  93 1.45  98 1.45  94 1.45
  23  0.208  0.791  0.501-  94 1.45  99 1.45  95 1.45
  24  0.208  0.916  0.501-  95 1.45 100 1.45  96 1.45
  25  0.333  0.541  0.501- 101 1.45  84 1.45  97 1.45
  26  0.333  0.666  0.501-  97 1.45 102 1.45  98 1.45
  27  0.333  0.791  0.501-  98 1.45 103 1.45  99 1.45
  28  0.333  0.916  0.501-  99 1.45 104 1.45 100 1.45
  29  0.458  0.541  0.501- 121 1.45  88 1.45 101 1.45
  30  0.458  0.666  0.501- 101 1.45 122 1.45 102 1.45
  31  0.458  0.791  0.501- 102 1.45 123 1.45 103 1.45
  32  0.458  0.916  0.501- 103 1.45 124 1.45 104 1.45
  33  0.583  0.041  0.501- 124 1.45 109 1.45 105 1.45
  34  0.583  0.166  0.501- 105 1.45 110 1.45 106 1.45
  35  0.583  0.291  0.501- 106 1.45 111 1.45 107 1.45
  36  0.583  0.416  0.501- 107 1.45 112 1.45 108 1.45
  37  0.708  0.041  0.501- 128 1.45 113 1.45 109 1.45
  38  0.708  0.166  0.501- 109 1.45 114 1.45 110 1.45
  39  0.708  0.291  0.501- 110 1.45 115 1.45 111 1.45
  40  0.708  0.416  0.501- 111 1.45 116 1.45 112 1.45
  41  0.833  0.041  0.501- 132 1.45 117 1.45 113 1.45
  42  0.833  0.166  0.501- 113 1.45 118 1.45 114 1.45
  43  0.833  0.291  0.501- 114 1.45 119 1.45 115 1.45
  44  0.833  0.416  0.501- 115 1.45 120 1.45 116 1.45
  45  0.958  0.041  0.501- 136 1.45 117 1.45  73 1.45
  46  0.958  0.166  0.501- 117 1.45 118 1.45  74 1.45
  47  0.958  0.291  0.501- 118 1.45 119 1.45  75 1.45
  48  0.958  0.416  0.501- 119 1.45  76 1.45 120 1.45
  49  0.583  0.541  0.501- 108 1.45 125 1.45 121 1.45
  50  0.583  0.666  0.501- 121 1.45 126 1.45 122 1.45
  51  0.583  0.791  0.501- 122 1.45 127 1.45 123 1.45
  52  0.583  0.916  0.501- 123 1.45 128 1.45 124 1.45
  53  0.708  0.541  0.501- 112 1.45 129 1.45 125 1.45
  54  0.708  0.666  0.501- 125 1.45 130 1.45 126 1.45
  55  0.708  0.791  0.501- 126 1.45 131 1.45 127 1.45
  56  0.708  0.916  0.501- 127 1.45 132 1.45 128 1.45
  57  0.833  0.541  0.501- 116 1.45 133 1.45 129 1.45
  58  0.833  0.666  0.501- 129 1.45 134 1.45 130 1.45
  59  0.833  0.791  0.501- 130 1.45 135 1.45 131 1.45
  60  0.833  0.916  0.501- 131 1.45 136 1.45 132 1.45
[...]
 124  0.541  0.958  0.501-  33 1.45  32 1.45  52 1.45
 125  0.666  0.583  0.501-  54 1.45  49 1.45  53 1.45
 126  0.666  0.708  0.501-  55 1.45  50 1.45  54 1.45
 127  0.666  0.833  0.501-  56 1.45  51 1.45  55 1.45
 128  0.666  0.958  0.501-  37 1.45  52 1.45  56 1.45
 129  0.791  0.583  0.501-  58 1.45  53 1.45  57 1.45
 130  0.791  0.708  0.501-  59 1.45  54 1.45  58 1.45
 131  0.791  0.833  0.501-  60 1.45  55 1.45  59 1.45
 132  0.791  0.958  0.501-  41 1.45  56 1.45  60 1.45
 133  0.916  0.583  0.501-  62 1.45  57 1.45  61 1.45
 134  0.916  0.708  0.501-  63 1.45  58 1.45  62 1.45
 135  0.916  0.833  0.501-  64 1.45  59 1.45  63 1.45
 136  0.916  0.958  0.501-  45 1.45  60 1.45  64 1.45
 137  0.322  0.372  0.615-  67 1.20
 138  0.189  0.297  0.618-  67 1.20

IMPORTANT INFORMATION: All symmetrisations will be switched off!
NOSYMM: (Re-)initialisation of all symmetry stuff for point group C_1.

 KPOINTS: K-Point Grid

Automatic generation of k-mesh.
Space group operators:
 irot       det(A)        alpha          n_x          n_y          n_z        tau_x        tau_y        tau_z
    1     1.000000     0.000001     1.000000     0.000000     0.000000     0.000000     0.000000     0.000000

 Subroutine IBZKPT returns following result:

 Found      6 irreducible k-points:

 Following reciprocal coordinates:
            Coordinates               Weight
  0.250000  0.250000  0.000000     16.000000
  0.500000 -0.250000  0.000000     16.000000
  0.250000  0.500000  0.000000     16.000000
 -0.250000  0.250000  0.000000     16.000000
 -0.000000  0.250000  0.000000     16.000000
  0.250000 -0.000000  0.000000     16.000000

 Following cartesian coordinates:
            Coordinates               Weight
  0.024879  0.000000  0.000000     16.000000
  0.012439 -0.021546  0.000000     16.000000
  0.037318  0.007182  0.000000     16.000000
  0.000000  0.014364  0.000000     16.000000
  0.012439  0.007182  0.000000     16.000000
  0.012439 -0.007182  0.000000     16.000000

 SYSTEM =  hBN
 POSCAR =  B C F N O

 Startparameter for this run:
   NWRITE =      2    write-flag & timer
   PREC   = accura    normal or accurate (medium, high low for compatibility)
   ISTART =      1    job   : 0-new  1-cont  2-samecut
   ICHARG =      0    charge: 1-file 2-atom 10-const
   ISPIN  =      2    spin polarized calculation?
   LNONCOLLINEAR =      F non collinear calculations
   LSORBIT =      F    spin-orbit coupling
   INIWAV =      1    electr: 0-lowe 1-rand  2-diag
   LASPH  =      T    aspherical Exc in radial PAW
   METAGGA=      F    non-selfconsistent MetaGGA calc.

 Electronic Relaxation 1
   ENCUT  =  550.0 eV  40.42 Ry    6.36 a.u.  38.43 38.43 66.93*2*pi/ulx,y,z
   ENINI  =  550.0     initial cutoff
   ENAUG  =  644.9 eV  augmentation charge cutoff
   NELM   =    100;   NELMIN=  2; NELMDL=  0     # of ELM steps
   EDIFF  = 0.1E-04   stopping-criterion for ELM
   LREAL  =      T    real-space projection
   NLSPLINE    = F    spline interpolate recip. space projectors
   LCOMPAT=      F    compatible to vasp.4.4
   GGA_COMPAT  = T    GGA compatible to vasp.4.4-vasp.4.6
   LMAXPAW     = -100 max onsite density
   LMAXMIX     =    2 max onsite mixed and CHGCAR
   VOSKOWN=      0    Vosko Wilk Nusair interpolation
   ROPT   =   -0.00025  -0.00025  -0.00025  -0.00025
   ROPT   =   -0.00025
 Ionic relaxation
   EDIFFG = -.5E-01   stopping-criterion for IOM
   NSW    =      0    number of steps for IOM
   NBLOCK =      1;   KBLOCK =      1    inner block; outer block
   IBRION =     -1    ionic relax: 0-MD 1-quasi-New 2-CG
   NFREE  =      1    steps in history (QN), initial steepest desc. (CG)
   ISIF   =      2    stress and relaxation
   IWAVPR =     10    prediction:  0-non 1-charg 2-wave 3-comb
   ISYM   =      0    0-nonsym 1-usesym 2-fastsym
   LCORR  =      T    Harris-Foulkes like correction to forces

   POTIM  = 0.5000    time-step for ionic-motion
   TEIN   =    0.0    initial temperature
   TEBEG  =    0.0;   TEEND  =   0.0 temperature during run
   SMASS  =  -3.00    Nose mass-parameter (am)
   estimated Nose-frequenzy (Omega)   =  0.10E-29 period in steps =****** mass=  -0.923E-26a.u.
   SCALEE = 1.0000    scale energy and forces
   NPACO  =    256;   APACO  = 16.0  distance and # of slots for P.C.
   PSTRESS=    0.0 pullay stress

  Mass of Ions in am
   POMASS =  10.81 12.01 19.00 14.00 16.00
  Ionic Valenz
   ZVAL   =   3.00  4.00  7.00  5.00  6.00
  Atomic Wigner-Seitz radii
  virtual crystal weights
   VCA    =   1.00  1.00  1.00  1.00  1.00
   NELECT =     571.0000    total number of electrons
   NUPDOWN=      -1.0000    fix difference up-down

 DOS related values:
   EMIN   = -10.00;   EMAX   =  5.00  energy-range for DOS
   EFERMI =   0.00
[...]
   -.128E+01 0.742E+00 0.195E+02   0.125E+01 -.777E+00 -.195E+02   0.751E-02 0.199E-02 -.585E-03   -.274E-04 -.699E-05 -.768E-03
   0.446E+01 0.126E+02 0.239E+02   -.447E+01 -.126E+02 -.238E+02   0.747E-02 0.216E-02 -.576E-03   0.225E-04 0.928E-04 -.735E-03
   -.270E+02 -.817E+01 0.407E+02   0.269E+02 0.815E+01 -.405E+02   0.408E-02 0.628E-03 -.101E-02   -.235E-03 -.685E-04 -.633E-03
   -.148E+02 -.878E+01 0.255E+02   0.147E+02 0.872E+01 -.254E+02   0.694E-02 0.175E-02 -.611E-03   -.132E-03 -.685E-04 -.728E-03
   -.550E+01 -.260E+01 0.191E+02   0.545E+01 0.256E+01 -.190E+02   0.769E-02 0.220E-02 -.671E-03   -.624E-04 -.269E-04 -.769E-03
   -.410E+00 0.610E+01 0.193E+02   0.397E+00 -.611E+01 -.192E+02   0.754E-02 0.240E-02 -.733E-03   -.225E-04 0.378E-04 -.767E-03
   -.463E-01 0.667E+01 0.192E+02   0.521E-01 -.668E+01 -.192E+02   0.718E-02 0.232E-02 -.918E-03   -.216E-04 0.496E-04 -.765E-03
   -.420E+01 0.139E+02 0.243E+02   0.421E+01 -.138E+02 -.242E+02   0.695E-02 0.268E-02 -.618E-03   -.523E-04 0.119E-03 -.726E-03
   -.131E+02 0.176E+02 0.314E+02   0.131E+02 -.175E+02 -.314E+02   0.646E-02 0.184E-02 -.642E-03   -.130E-03 0.156E-03 -.671E-03
   -.217E+02 0.125E+02 0.351E+02   0.217E+02 -.124E+02 -.350E+02   0.604E-02 0.184E-02 -.558E-03   -.206E-03 0.104E-03 -.649E-03
   0.412E+01 -.144E+01 0.184E+02   -.409E+01 0.142E+01 -.183E+02   0.715E-02 0.211E-02 -.789E-03   0.705E-05 -.125E-04 -.774E-03
   0.834E+00 0.221E+01 0.192E+02   -.813E+00 -.222E+01 -.191E+02   0.704E-02 0.172E-02 -.581E-03   -.106E-04 0.186E-04 -.765E-03
   -.491E+01 0.640E+01 0.209E+02   0.492E+01 -.640E+01 -.208E+02   0.686E-02 0.134E-02 -.370E-03   -.525E-04 0.563E-04 -.752E-03
   -.104E+02 0.772E+01 0.226E+02   0.104E+02 -.769E+01 -.225E+02   0.709E-02 0.148E-02 -.611E-03   -.101E-03 0.644E-04 -.739E-03
   0.123E+02 -.698E+01 0.231E+02   -.123E+02 0.697E+01 -.230E+02   0.780E-02 0.141E-02 -.639E-03   0.706E-04 -.490E-04 -.748E-03
   0.824E+01 -.804E+01 0.220E+02   -.819E+01 0.800E+01 -.219E+02   0.731E-02 0.144E-02 -.447E-03   0.491E-04 -.580E-04 -.751E-03
   0.200E+01 -.490E+01 0.199E+02   -.197E+01 0.486E+01 -.199E+02   0.729E-02 0.150E-02 -.417E-03   0.931E-05 -.359E-04 -.761E-03
   -.276E+01 -.440E+00 0.186E+02   0.276E+01 0.422E+00 -.185E+02   0.724E-02 0.170E-02 -.557E-03   -.298E-04 -.495E-05 -.767E-03
   0.236E+02 -.727E+01 0.348E+02   -.235E+02 0.730E+01 -.346E+02   0.977E-02 0.316E-03 -.562E-03   0.169E-03 -.591E-04 -.673E-03
   0.188E+02 -.166E+02 0.351E+02   -.187E+02 0.165E+02 -.349E+02   0.955E-02 -.125E-03 -.864E-03   0.138E-03 -.124E-03 -.673E-03
   0.853E+01 -.174E+02 0.282E+02   -.847E+01 0.174E+02 -.281E+02   0.830E-02 0.986E-03 -.433E-03   0.625E-04 -.127E-03 -.711E-03
   0.150E+01 -.108E+02 0.213E+02   -.149E+01 0.108E+02 -.212E+02   0.750E-02 0.166E-02 -.570E-03   0.735E-05 -.843E-04 -.752E-03
   -.220E+02 0.257E+01 0.312E+02   0.219E+02 -.252E+01 -.310E+02   0.642E-02 0.177E-02 -.642E-03   -.199E-03 0.195E-04 -.688E-03
   -.143E+02 -.329E+01 0.239E+02   0.142E+02 0.329E+01 -.238E+02   0.699E-02 0.181E-02 -.550E-03   -.134E-03 -.207E-04 -.739E-03
   -.578E+01 -.321E+01 0.189E+02   0.574E+01 0.319E+01 -.189E+02   0.750E-02 0.200E-02 -.747E-03   -.695E-04 -.235E-04 -.770E-03
   -.715E+00 0.513E+00 0.175E+02   0.703E+00 -.530E+00 -.174E+02   0.781E-02 0.203E-02 -.909E-03   -.295E-04 -.147E-05 -.779E-03
   -.120E+02 0.500E+01 0.225E+02   0.119E+02 -.496E+01 -.224E+02   0.708E-02 0.142E-02 -.552E-03   -.116E-03 0.399E-04 -.743E-03
   -.803E+01 0.949E+00 0.207E+02   0.798E+01 -.929E+00 -.206E+02   0.715E-02 0.181E-02 -.398E-03   -.881E-04 0.858E-05 -.760E-03
   -.147E+01 -.180E+01 0.190E+02   0.144E+01 0.180E+01 -.189E+02   0.763E-02 0.158E-02 -.496E-03   -.384E-04 -.837E-05 -.772E-03
   0.338E+01 -.271E+01 0.183E+02   -.337E+01 0.270E+01 -.182E+02   0.748E-02 0.160E-02 -.708E-03   -.178E-05 -.174E-04 -.776E-03
   -.406E+01 0.224E+01 0.182E+02   0.404E+01 -.224E+01 -.182E+02   0.751E-02 0.194E-02 -.848E-03   -.473E-04 0.128E-04 -.770E-03
   -.106E+01 0.245E+01 0.186E+02   0.103E+01 -.244E+01 -.185E+02   0.775E-02 0.188E-02 -.727E-03   -.293E-04 0.127E-04 -.772E-03
   0.513E+01 0.662E+00 0.199E+02   -.514E+01 -.646E+00 -.199E+02   0.756E-02 0.126E-02 -.645E-03   0.157E-04 0.321E-05 -.767E-03
   0.110E+02 -.295E+01 0.219E+02   -.110E+02 0.296E+01 -.219E+02   0.792E-02 0.936E-03 -.568E-03   0.580E-04 -.191E-04 -.754E-03
[...]
   -.237E+02 0.509E+01 0.401E+02   0.236E+02 -.503E+01 -.400E+02   0.103E-01 -.134E-03 0.128E-01   -.192E-03 0.481E-04 -.134E-02
   -.134E+02 -.205E+01 0.346E+02   0.133E+02 0.206E+01 -.344E+02   0.116E-01 0.582E-03 0.163E-01   -.111E-03 -.157E-05 -.139E-02
   -.216E+01 -.418E+01 0.307E+02   0.212E+01 0.416E+01 -.306E+02   0.118E-01 0.628E-04 0.199E-01   -.240E-04 -.184E-04 -.141E-02
   0.382E+01 -.200E+01 0.297E+02   -.382E+01 0.197E+01 -.296E+02   0.117E-01 -.937E-03 0.205E-01   0.247E-04 -.119E-04 -.141E-02
   -.954E+01 0.553E+01 0.321E+02   0.949E+01 -.550E+01 -.320E+02   0.123E-01 0.514E-03 0.174E-01   -.680E-04 0.432E-04 -.139E-02
   -.217E+01 0.250E+01 0.321E+02   0.213E+01 -.248E+01 -.320E+02   0.102E-01 -.958E-04 0.159E-01   -.193E-04 0.210E-04 -.140E-02
   0.833E+01 -.205E+01 0.331E+02   -.834E+01 0.206E+01 -.330E+02   0.113E-01 -.168E-02 0.158E-01   0.589E-04 -.481E-05 -.140E-02
   0.152E+02 -.702E+01 0.346E+02   -.151E+02 0.701E+01 -.345E+02   0.117E-01 -.178E-02 0.191E-01   0.111E-03 -.403E-04 -.139E-02
   -.709E+00 0.315E+00 0.294E+02   0.685E+00 -.339E+00 -.293E+02   0.122E-01 0.675E-03 0.234E-01   0.112E-04 -.716E-05 -.140E-02
   0.656E+01 0.464E+01 0.313E+02   -.659E+01 -.463E+01 -.313E+02   0.129E-01 0.103E-02 0.190E-01   0.574E-04 0.253E-04 -.140E-02
   0.191E+02 0.367E+01 0.374E+02   -.191E+02 -.364E+01 -.373E+02   0.130E-01 0.474E-03 0.134E-01   0.153E-03 0.233E-04 -.137E-02
   0.308E+02 -.471E+01 0.461E+02   -.307E+02 0.474E+01 -.460E+02   0.137E-01 0.395E-04 0.144E-01   0.246E-03 -.326E-04 -.131E-02
   -.453E+03 -.121E+03 -.450E+03   0.513E+03 0.109E+03 0.444E+03   -.580E+02 0.122E+02 0.665E+01   -.362E-02 -.129E-02 0.975E-03
   0.212E+03 -.433E+03 -.488E+03   -.260E+03 0.473E+03 0.487E+03   0.461E+02 -.381E+02 0.120E+01   0.178E-02 -.375E-02 0.601E-03
   -.543E+01 -.126E+02 0.340E+01   0.625E-12 -.625E-12 0.102E-11   0.680E+01 0.124E+02 -.304E+01   0.275E-02 0.133E-02 -.128E+00

 POSITION                                       TOTAL-FORCE (eV/Angst)
      1.25092     -0.72580     17.54828         0.005877      0.003421     -0.004030
      2.50703      1.44993     17.54825         0.004886      0.002972     -0.003846
      3.76320      3.62553     17.54812         0.004525      0.002743     -0.003358
      5.01928      5.80109     17.54862         0.005925      0.002643     -0.004470
      2.50702     -2.90151     17.54834         0.006200      0.002720     -0.003424
      3.76312     -0.72589     17.54750         0.004667      0.003297     -0.003576
      5.01940      1.45013     17.54714         0.002639      0.001693     -0.001848
      6.27559      3.62564     17.54807         0.003740      0.002182     -0.003205
      3.76316     -5.07711     17.54892         0.005563      0.002331     -0.004218
      5.01929     -2.90158     17.54887         0.005109      0.002411     -0.005788
      6.27565     -0.72591     17.54813         0.004075      0.003008     -0.001507
      7.53184      1.45001     17.54863         0.004150      0.001138     -0.001104
      5.01921     -7.25276     17.54908         0.006094      0.002981     -0.005882
      6.27531     -5.07717     17.54898         0.005830      0.002905     -0.004926
      7.53146     -2.90148     17.54870         0.006249      0.002087     -0.003078
      8.78770     -0.72572     17.54857         0.004781      0.002044     -0.002321
      6.27537      7.97668     17.54901         0.005549      0.002957     -0.004925
      7.53140     10.15231     17.54895         0.006034      0.002556     -0.003343
      8.78746     12.32794     17.54895         0.006044      0.002709     -0.003495
     10.04354     14.50356     17.54883         0.005882      0.002744     -0.004019
      7.53155      5.80117     17.54877         0.004831      0.001639     -0.004746
      8.78758      7.97677     17.54927         0.004978      0.001590     -0.005593
     10.04361     10.15235     17.54920         0.005381      0.002229     -0.004083
     11.29964     12.32793     17.54905         0.006053      0.002963     -0.005271
      8.78777      3.62558     17.54849         0.004326      0.001850     -0.002460
     10.04369      5.80115     17.54909         0.005271      0.002529     -0.005127
     11.29972      7.97674     17.54911         0.005585      0.002293     -0.002087
     12.55579     10.15235     17.54916         0.005169      0.001514     -0.005026
     10.04377      1.44989     17.54847         0.005224      0.002377     -0.003046
     11.29978      3.62549     17.54888         0.005618      0.002494     -0.004703
     12.55579      5.80108     17.54899         0.005965      0.002789     -0.003760
     13.81185      7.97667     17.54899         0.005705      0.002386     -0.004219
      6.27533     -9.42836     17.54893         0.005517      0.002681     -0.004358
      7.53140     -7.25272     17.54909         0.005861      0.002662     -0.003776
      8.78750     -5.07702     17.54910         0.005603      0.001477     -0.003875
     10.04361     -2.90140     17.54902         0.005722      0.002747     -0.005126
      7.53144    -11.60396     17.54900         0.005439      0.003312     -0.004765
      8.78753     -9.42830     17.54919         0.005369      0.002229     -0.004701
     10.04361     -7.25262     17.54930         0.004987      0.001491     -0.004605
     11.29969     -5.07702     17.54915         0.005472      0.002327     -0.004744
      8.78753    -13.77954     17.54900         0.005798      0.002844     -0.004523
     10.04362    -11.60391     17.54910         0.005277      0.002288     -0.004524
     11.29970     -9.42827     17.54924         0.005404      0.001897     -0.004186
     12.55578     -7.25266     17.54909         0.005293      0.002224     -0.004070
     10.04358    -15.95516     17.54878         0.006247      0.002688     -0.004372
     11.29968    -13.77952     17.54859         0.006125      0.002157     -0.003131
     12.55577    -11.60392     17.54892         0.006156      0.002350     -0.004471
     13.81187     -9.42832     17.54900         0.005501      0.002419     -0.003754
     11.29975     -0.72579     17.54893         0.005582      0.003012     -0.004229
     12.55584      1.44985     17.54903         0.005238      0.002356     -0.004938
     13.81189      3.62545     17.54903         0.005634      0.002749     -0.005148
     15.06794      5.80104     17.54888         0.006094      0.003010     -0.004310
     12.55577     -2.90141     17.54906         0.005620      0.002185     -0.004284
     13.81189     -0.72580     17.54914         0.005527      0.002674     -0.004129
     15.06796      1.44983     17.54923         0.005758      0.002383     -0.005284
     16.32404      3.62545     17.54907         0.005514      0.002567     -0.005208
     13.81185     -5.07707     17.54886         0.005776      0.002985     -0.004558
     15.06791     -2.90143     17.54890         0.006225      0.002702     -0.004135
     16.32404     -0.72575     17.54908         0.005593      0.001869     -0.003752
     17.58014      1.44987     17.54913         0.005683      0.001827     -0.004704
[...]
     15.06799      7.25153     17.54864        -0.003109     -0.001729      0.004831
     12.55587     -1.45095     17.54890        -0.003784     -0.001610      0.004193
     13.81196      0.72468     17.54893        -0.003406     -0.001675      0.004983
     15.06802      2.90030     17.54882        -0.003196     -0.001561      0.005586
     16.32410      5.07592     17.54865        -0.003429     -0.002021      0.005324
     13.81189     -3.62658     17.54868        -0.003105     -0.001918      0.004742
     15.06804     -1.45093     17.54882        -0.004133     -0.002453      0.004489
     16.32413      0.72473     17.54895        -0.003788     -0.002928      0.004785
     17.58022      2.90033     17.54879        -0.003813     -0.002422      0.005331
     15.06799     -5.80224     17.54840        -0.003546     -0.001989      0.005565
     16.32405     -3.62661     17.54855        -0.003220     -0.001695      0.004828
     17.58017     -1.45094     17.54884        -0.003346     -0.002345      0.004120
     18.83629      0.72468     17.54878        -0.003162     -0.002010      0.004397
      6.96861      0.87130     21.51806        -0.028494      0.002461      0.012111
      4.88016      1.87966     21.62715        -0.007850      0.011221      0.015775
    total drift:                                1.378768     -0.177901      0.233812

  FREE ENERGIE OF THE ION-ELECTRON SYSTEM (eV)
  free  energy   TOTEN  =     -1328.22973356 eV

  energy  without entropy=    -1328.21223606  energy(sigma->0) =    -1328.22098481

 stress matrix after NEB project (eV)
    -47.38441      0.74837      0.29669
      0.74827    -46.54590      0.20734
      0.29541      0.20688     -0.68456
  FORCES: max atom, RMS     0.043486    0.010535
  FORCE total and by dimension    0.123761    0.031755
  Stress total and by dimension   66.435325   47.384407
 writing wavefunctions

 total charge

[...]

 magnetization (x)

# of ion       s       p       d       tot
    1       -0.000  -0.000   0.000  -0.000
    2       -0.000  -0.000   0.000  -0.000
    3       -0.000  -0.000   0.000  -0.000
    4       -0.000  -0.000   0.000  -0.000
    5       -0.000  -0.000   0.000  -0.000
    6       -0.000  -0.000   0.000  -0.000
    7       -0.000   0.000   0.000   0.000
    8       -0.000   0.000   0.000   0.000
    9       -0.000  -0.000   0.000  -0.000
   10       -0.000  -0.000   0.000  -0.000
   11       -0.000  -0.000   0.000  -0.000
   12        0.000   0.000   0.000   0.000
   13       -0.000  -0.000   0.000  -0.000
   14       -0.000  -0.000   0.000  -0.000
   15       -0.000  -0.000   0.000  -0.000
   16       -0.000  -0.000   0.000  -0.000
   17       -0.000  -0.000   0.000  -0.000
   18       -0.000  -0.000   0.000  -0.000
   19       -0.000  -0.000   0.000  -0.000
   20       -0.000  -0.000   0.000  -0.000
   21       -0.000  -0.000   0.000  -0.000
   22       -0.000  -0.000   0.000  -0.000
   23       -0.000  -0.000   0.000  -0.000
   24       -0.000  -0.000   0.000  -0.000
   25       -0.000  -0.000   0.000  -0.000
   26       -0.000  -0.000   0.000  -0.000
   27       -0.000  -0.000   0.000  -0.000
   28       -0.000  -0.000   0.000  -0.000
   29       -0.000  -0.000   0.000  -0.000
   30       -0.000  -0.000   0.000  -0.000
   31       -0.000  -0.000   0.000  -0.000
   32       -0.000  -0.000   0.000  -0.000
   33       -0.000  -0.000   0.000  -0.000
   34       -0.000  -0.000   0.000  -0.000
   35       -0.000  -0.000   0.000  -0.000
   36       -0.000  -0.000   0.000  -0.000
   37       -0.000  -0.000   0.000  -0.000
   38       -0.000  -0.000   0.000  -0.000
   39       -0.000  -0.000   0.000  -0.000
   40       -0.000  -0.000   0.000  -0.000
   41       -0.000  -0.000   0.000  -0.000
   42       -0.000  -0.000   0.000  -0.000
   43       -0.000  -0.000   0.000  -0.000
   44       -0.000  -0.000   0.000  -0.000
   45       -0.000  -0.000   0.000  -0.000
   46       -0.000  -0.000   0.000  -0.000
   47       -0.000  -0.000   0.000  -0.000
   48       -0.000  -0.000   0.000  -0.000
   49       -0.000  -0.000   0.000  -0.000
   50       -0.000  -0.000   0.000  -0.000
   51       -0.000  -0.000   0.000  -0.000
   52       -0.000  -0.000   0.000  -0.000
   53       -0.000  -0.000   0.000  -0.000
   54       -0.000  -0.000   0.000  -0.000
   55       -0.000  -0.000   0.000  -0.000
   56       -0.000  -0.000   0.000  -0.000
   57       -0.000  -0.000   0.000  -0.000
   58       -0.000  -0.000   0.000  -0.000
   59       -0.000  -0.000   0.000  -0.000
   60       -0.000  -0.000   0.000  -0.000
[...]
  124        0.000   0.000   0.000   0.000
  125        0.000   0.000   0.000   0.000
  126        0.000   0.000   0.000   0.000
  127        0.000   0.000   0.000   0.000
  128        0.000   0.000   0.000   0.000
  129        0.000   0.000   0.000   0.000
  130        0.000   0.000   0.000   0.000
  131        0.000   0.000   0.000   0.000
  132        0.000   0.000   0.000   0.000
  133        0.000   0.000   0.000   0.000
  134        0.000   0.000   0.000   0.000
  135        0.000   0.000   0.000   0.000
  136        0.000   0.000   0.000   0.000
  137        0.002   0.139   0.000   0.141
  138        0.002   0.131   0.000   0.133
tot          0.038   0.584   0.000   0.623