 vasp.5.4.4.18Apr17-6-g9f103f2a35 (build May 01 2020 14:57:12) complex

 executed on             LinuxIFC date 2021.08.04  20:25:53

 INCAR:
 POTCAR:    PAW_PBE B 06Sep2000
 POTCAR:    PAW_PBE N 08Apr2002

 POTCAR:    PAW_PBE B 06Sep2000
   VRHFIN =B: s2p1

   TITEL  = PAW_PBE B 06Sep2000
   POMASS =   10.811; ZVAL   =    3.000    mass and valenz
   ENMAX  =  318.614; ENMIN  =  238.960 eV

 POTCAR:    PAW_PBE N 08Apr2002
   VRHFIN =N: s2p3

   TITEL  = PAW_PBE N 08Apr2002
   POMASS =   14.001; ZVAL   =    5.000    mass and valenz
   ENMAX  =  400.000; ENMIN  =  300.000 eV

 Optimization of the real space projectors (new method)

 maximal supplied QI-value         = 22.11
 optimisation between [QCUT,QGAM] = [ 11.94, 23.88] = [ 39.92,159.67] Ry
 Optimized for a Real-space Cutoff    1.18 Angstroem

   l    n(q)    QCUT    max X(q) W(low)/X(q) W(high)/X(q)  e(spline)
   0      8    11.939    53.033    0.11E-03    0.34E-03    0.60E-07
   0      8    11.939    34.740    0.11E-03    0.34E-03    0.59E-07
   1      8    11.939    30.949    0.22E-03    0.20E-03    0.17E-06
   1      8    11.939    19.518    0.20E-03    0.18E-03    0.16E-06
 Optimization of the real space projectors (new method)

 maximal supplied QI-value         = 25.13
 optimisation between [QCUT,QGAM] = [ 11.81, 23.88] = [ 39.08,159.64] Ry
 Optimized for a Real-space Cutoff    1.41 Angstroem

   l    n(q)    QCUT    max X(q) W(low)/X(q) W(high)/X(q)  e(spline)
   0     10    11.813    79.467    0.48E-04    0.30E-04    0.67E-06
   0     10    11.813    66.151    0.47E-04    0.30E-04    0.67E-06
   1     10    11.813    20.169    0.11E-03    0.17E-03    0.11E-05
   1     10    11.813    14.454    0.11E-03    0.17E-03    0.11E-05
  PAW_PBE B 06Sep2000                   :
  PAW_PBE N 08Apr2002                   :

 POSCAR: B N
  positions in direct lattice
  velocities in cartesian coordinates

 METAGGA = SCAN     LMAXTAU =  6    LMIXTAU =  F

 ion  position               nearest neighbor table
   1  0.111  0.055  0.500-  43 1.45  37 1.45  42 1.46
   2  0.111  0.223  0.500-  44 1.45  37 1.45  38 1.46
   3  0.112  0.390  0.500-  38 1.44  45 1.45  39 1.45
   4  0.109  0.557  0.500-  40 1.42  39 1.43  46 1.52
   5  0.109  0.719  0.500-  40 1.42  41 1.43  47 1.52
   6  0.112  0.888  0.500-  42 1.44  48 1.45  41 1.45
   7  0.278  0.055  0.500-  49 1.45  43 1.45  48 1.47
   8  0.278  0.222  0.500-  50 1.45  43 1.46  44 1.46
   9  0.278  0.390  0.500-  51 1.45  44 1.45  45 1.47
  10  0.281  0.557  0.500-  52 1.42  45 1.43  46 1.52
  11  0.281  0.891  0.500-  54 1.42  48 1.43  47 1.52
  12  0.445  0.057  0.500-  55 1.44  49 1.44  54 1.47
  13  0.445  0.223  0.500-  50 1.45  56 1.45  49 1.46
  14  0.445  0.389  0.500-  50 1.45  57 1.45  51 1.46
  15  0.445  0.555  0.500-  58 1.44  51 1.44  52 1.47
  16  0.443  0.719  0.500-  52 1.42  59 1.43  53 1.52
  17  0.443  0.891  0.500-  54 1.42  60 1.43  53 1.52
  18  0.610  0.055  0.500-  55 1.45  61 1.45  60 1.47
  19  0.611  0.223  0.500-  62 1.45  56 1.45  55 1.46
  20  0.611  0.389  0.500-  63 1.45  56 1.45  57 1.45
  21  0.611  0.555  0.500-  64 1.45  57 1.45  58 1.46
  22  0.610  0.722  0.500-  58 1.45  65 1.45  59 1.47
  23  0.610  0.888  0.500-  66 1.44  59 1.45  60 1.45
  24  0.777  0.055  0.500-  61 1.45  67 1.45  66 1.46
  25  0.778  0.222  0.500-  62 1.45  61 1.46  68 1.46
  26  0.777  0.389  0.500-  62 1.45  63 1.45  69 1.46
  27  0.777  0.555  0.500-  64 1.45  63 1.45  70 1.46
  28  0.778  0.722  0.500-  64 1.45  71 1.46  65 1.46
  29  0.777  0.889  0.500-  65 1.45  72 1.45  66 1.46
  30  0.944  0.056  0.500-  72 1.45  37 1.45  67 1.45
  31  0.945  0.223  0.500-  68 1.45  67 1.45  38 1.46
  32  0.945  0.390  0.500-  69 1.45  68 1.45  39 1.47
  33  0.943  0.555  0.500-  69 1.44  70 1.44  40 1.47
  34  0.945  0.722  0.500-  70 1.45  71 1.45  41 1.47
  35  0.945  0.889  0.500-  71 1.45  72 1.45  42 1.46
  36  0.278  0.722  0.500-  46 1.35  53 1.35  47 1.35
  37  0.056  0.111  0.500-   2 1.45   1 1.45  30 1.45
  38  0.056  0.279  0.500-   3 1.44  31 1.46   2 1.46
  39  0.058  0.447  0.500-   4 1.43   3 1.45  32 1.47
  40  0.055  0.611  0.500-   5 1.42   4 1.42  33 1.47
  41  0.058  0.777  0.500-   5 1.43   6 1.45  34 1.47
  42  0.056  0.944  0.500-   6 1.44  35 1.46   1 1.46
  43  0.222  0.111  0.500-   7 1.45   1 1.45   8 1.46
  44  0.222  0.279  0.500-   9 1.45   2 1.45   8 1.46
  45  0.223  0.447  0.500-  10 1.43   3 1.45   9 1.47
  46  0.226  0.619  0.500-  36 1.35   4 1.52  10 1.52
  47  0.226  0.774  0.500-  36 1.35  11 1.52   5 1.52
  48  0.223  0.942  0.500-  11 1.43   6 1.45   7 1.47
  49  0.389  0.111  0.500-  12 1.44   7 1.45  13 1.46
  50  0.389  0.278  0.500-  14 1.45  13 1.45   8 1.45
  51  0.389  0.445  0.500-  15 1.44   9 1.45  14 1.46
  52  0.389  0.611  0.500-  16 1.42  10 1.42  15 1.47
  53  0.381  0.774  0.500-  36 1.35  17 1.52  16 1.52
  54  0.389  0.945  0.500-  11 1.42  17 1.42  12 1.47
  55  0.555  0.111  0.500-  12 1.44  18 1.45  19 1.46
  56  0.556  0.278  0.500-  13 1.45  19 1.45  20 1.45
  57  0.556  0.444  0.500-  21 1.45  14 1.45  20 1.45
  58  0.555  0.611  0.500-  15 1.44  22 1.45  21 1.46
  59  0.553  0.777  0.500-  16 1.43  23 1.45  22 1.47
  60  0.553  0.942  0.500-  17 1.43  23 1.45  18 1.47
  61  0.721  0.111  0.500-  18 1.45  24 1.45  25 1.46
  62  0.722  0.278  0.500-  19 1.45  26 1.45  25 1.45
  63  0.722  0.444  0.500-  27 1.45  26 1.45  20 1.45
  64  0.722  0.611  0.500-  21 1.45  27 1.45  28 1.45
  65  0.721  0.778  0.500-  22 1.45  29 1.45  28 1.46
  66  0.721  0.944  0.500-  23 1.44  24 1.46  29 1.46
  67  0.889  0.111  0.500-  24 1.45  31 1.45  30 1.45
  68  0.889  0.279  0.500-  32 1.45  31 1.45  25 1.46
  69  0.889  0.445  0.500-  33 1.44  32 1.45  26 1.46
  70  0.889  0.611  0.500-  33 1.44  34 1.45  27 1.46
  71  0.889  0.778  0.500-  34 1.45  35 1.45  28 1.46
  72  0.889  0.944  0.500-  29 1.45  35 1.45  30 1.45

  LATTYP: Found a hexagonal cell.
 ALAT       =    15.0731507304
 C/A-ratio  =     2.3296167479

  Lattice vectors:

 A1 = (   7.5365500567, -13.0537460594,   0.0000000000)
 A2 = (   7.5365500567,  13.0537460594,   0.0000000000)
 A3 = (   0.0000000000,   0.0000000000,  35.1146643856)

Analysis of symmetry for initial positions (statically):
 Subroutine PRICEL returns:
 Original cell was already a primitive cell.

 Routine SETGRP: Setting up the symmetry group for a
 hexagonal supercell.

 Subroutine GETGRP returns: Found 12 space group operations
 (whereof  4 operations were pure point group operations)
 out of a pool of 24 trial point group operations.

The static configuration has the point symmetry C_2v.
 The point group associated with its full space group is D_3h.

Analysis of symmetry for dynamics (positions and initial velocities):
 Subroutine PRICEL returns:
 Original cell was already a primitive cell.

[...]

The dynamic configuration has the point symmetry C_2v.
 The point group associated with its full space group is D_3h.

Analysis of constrained symmetry for selective dynamics:
 Subroutine PRICEL returns:
 Original cell was already a primitive cell.

[...]

The constrained configuration has the point symmetry C_2v.
 The point group associated with its full space group is D_3h.

Analysis of structural, dynamic, and magnetic symmetry:
 Subroutine PRICEL returns:
 Original cell was already a primitive cell.

 Routine SETGRP: Setting up the symmetry group for a
 hexagonal supercell.

 Subroutine GETGRP returns: Found 12 space group operations
 (whereof  4 operations were pure point group operations)
 out of a pool of 24 trial point group operations.

The magnetic configuration has the point symmetry C_2v.
 The point group associated with its full space group is D_3h.

 Subroutine INISYM returns: Found 12 space group operations
 (whereof  4 operations are pure point group operations),
 and found     1 'primitive' translations

 KPOINTS: K-Point Grid

Automatic generation of k-mesh.
Space group operators:
 irot       det(A)        alpha          n_x          n_y          n_z        tau_x        tau_y        tau_z
    1     1.000000     0.000000     1.000000     0.000000     0.000000     0.000000     0.000000     0.000000
    2    -1.000000   180.000000     0.000000     0.000000     1.000000     0.000000     0.000000     0.000000
    3     1.000000   180.000000     0.000000     1.000000     0.000000     0.000000     0.000000     0.000000
    4    -1.000000   180.000000     1.000000     0.000000     0.000000     0.000000     0.000000     0.000000
    5    -1.000000    60.000000     0.000000     0.000000    -1.000000     0.833334     0.000001     0.000000
    6     1.000000   120.000000     0.000000     0.000000    -1.000000     0.000001     0.166667     0.000000
    7     1.000000   120.000000     0.000000     0.000000     1.000000     0.833334     0.000001     0.000000
    8    -1.000000    60.000000     0.000000     0.000000     1.000000     0.000001     0.166667     0.000000
    9    -1.000000   180.000000     0.500002    -0.866024     0.000000     0.833334    -0.000000     0.000000
   10    -1.000000   180.000000    -0.500002    -0.866024     0.000000    -0.000000     0.166667     0.000000
   11     1.000000   180.000000     0.866026     0.499998     0.000000     0.833334    -0.000000     0.000000
   12     1.000000   180.000000     0.866026    -0.499998     0.000000    -0.000000     0.166667     0.000000

 Subroutine IBZKPT returns following result:

 Found      3 irreducible k-points:

 Following reciprocal coordinates:
            Coordinates               Weight
  0.000000  0.000000  0.000000      1.000000
  0.333333  0.000000  0.000000      6.000000
  0.333333  0.333333  0.000000      2.000000

 Following cartesian coordinates:
            Coordinates               Weight
  0.000000  0.000000  0.000000      1.000000
  0.022114 -0.012768  0.000000      6.000000
  0.044229  0.000000  0.000000      2.000000

 SYSTEM =  SiC
 POSCAR =  B N

 Startparameter for this run:
   NWRITE =      2    write-flag & timer
   PREC   = accura    normal or accurate (medium, high low for compatibility)
   ISTART =      1    job   : 0-new  1-cont  2-samecut
   ICHARG =      0    charge: 1-file 2-atom 10-const
   ISPIN  =      2    spin polarized calculation?
   LNONCOLLINEAR =      F non collinear calculations
   LSORBIT =      F    spin-orbit coupling
   INIWAV =      1    electr: 0-lowe 1-rand  2-diag
   LASPH  =      T    aspherical Exc in radial PAW
   METAGGA=      F    non-selfconsistent MetaGGA calc.

 Electronic Relaxation 1
   ENCUT  =  550.0 eV  40.42 Ry    6.36 a.u.  28.82 28.82 67.15*2*pi/ulx,y,z
   ENINI  =  550.0     initial cutoff
   ENAUG  =  627.1 eV  augmentation charge cutoff
   NELM   =    100;   NELMIN=  2; NELMDL=  0     # of ELM steps
   EDIFF  = 0.1E-04   stopping-criterion for ELM
   LREAL  =      T    real-space projection
   NLSPLINE    = F    spline interpolate recip. space projectors
   LCOMPAT=      F    compatible to vasp.4.4
   GGA_COMPAT  = T    GGA compatible to vasp.4.4-vasp.4.6
   LMAXPAW     = -100 max onsite density
   LMAXMIX     =    2 max onsite mixed and CHGCAR
   VOSKOWN=      0    Vosko Wilk Nusair interpolation
   ROPT   =   -0.00025  -0.00025
 Ionic relaxation
[...]
   -.629E+00 -.515E+00 0.180E-04   0.679E+00 -.184E+00 0.519E-18   -.148E-01 0.229E+00 0.000E+00   -.108E-02 -.282E-02 0.571E-08
   -.334E+01 -.272E+01 -.231E-04   0.394E+01 0.121E+01 0.137E-17   -.927E-01 0.597E+00 0.331E-23   -.265E-03 0.362E-03 -.732E-08
   -.280E+01 0.162E+01 0.229E-04   0.435E+01 -.251E+01 0.325E-18   -.412E+00 0.238E+00 0.000E+00   0.174E-02 -.101E-02 0.510E-08
   -.408E+00 0.147E+01 0.153E-04   0.945E+00 -.166E+01 0.862E-18   -.113E+00 -.250E-01 0.000E+00   0.879E-03 -.175E-02 -.427E-08
   0.169E-04 0.271E+01 0.191E-04   0.793E-09 -.260E+01 0.213E-18   0.000E+00 -.115E+00 0.496E-23   -.343E-08 -.102E-02 0.163E-07
   -.131E+00 0.802E+00 0.149E-04   -.500E+00 -.495E+00 -.162E-18   0.206E+00 -.102E+00 -.165E-23   -.190E-02 0.234E-02 -.189E-08
   -.760E+00 -.288E+00 -.979E-05   0.179E+00 0.682E+00 -.806E-21   0.191E+00 -.128E+00 0.000E+00   -.298E-02 0.474E-03 -.745E-08
   -.234E+01 -.135E+01 -.192E-04   0.225E+01 0.130E+01 0.984E-18   0.996E-01 0.575E-01 0.000E+00   0.885E-03 0.511E-03 -.407E-08
   -.148E+01 -.383E+00 -.492E-05   0.191E+01 0.113E-01 0.468E-18   -.350E-01 0.111E+00 -.662E-23   0.195E-02 0.112E-03 0.246E-08
   0.295E-04 -.419E-03 0.517E-06   -.502E-11 0.765E-03 0.109E-17   0.678E-19 0.271E-19 0.000E+00   -.170E-07 -.127E-07 -.219E-11
   0.408E+00 0.147E+01 -.510E-05   -.945E+00 -.166E+01 0.227E-17   0.113E+00 -.250E-01 0.000E+00   -.879E-03 -.175E-02 0.909E-08
   -.686E+00 0.425E+01 0.142E-05   -.925E+00 -.401E+01 0.159E-17   0.563E+00 -.218E+00 0.827E-23   0.446E-03 0.486E-04 0.102E-08
   -.191E+00 0.110E+00 0.458E-05   -.186E+01 0.107E+01 -.285E-18   0.856E+00 -.494E+00 0.000E+00   -.390E-03 0.225E-03 -.957E-08
   -.403E+01 -.153E+01 0.447E-05   0.301E+01 0.281E+01 -.149E-18   0.470E+00 -.379E+00 0.000E+00   0.181E-03 -.411E-03 0.867E-08
   -.107E+01 -.109E+01 0.109E-04   0.963E+00 0.165E+01 -.402E-18   0.784E-01 -.857E-01 0.000E+00   0.107E-02 0.163E-02 -.417E-08
   -.124E-02 -.132E-02 -.438E-07   0.131E-08 0.150E-02 -.988E-18   -.163E-18 0.141E-17 0.000E+00   -.248E-07 0.622E-08 0.239E-10
   0.427E+00 -.247E+00 -.917E-05   -.716E+00 0.413E+00 -.395E-19   0.737E-01 -.425E-01 0.212E-21   -.531E-02 0.307E-02 0.528E-08
   0.242E+01 0.140E+01 -.306E-04   -.411E+01 -.238E+01 0.322E-17   0.545E+00 0.314E+00 0.397E-22   -.538E-02 -.311E-02 -.925E-08
   0.895E+01 0.476E+01 -.306E-04   -.134E+02 -.611E+01 0.258E-17   0.197E+01 0.859E+00 0.000E+00   -.402E-02 0.652E-02 0.724E-09
   0.186E+02 -.107E+02 -.130E-03   -.236E+02 0.136E+02 -.492E-18   0.257E+01 -.149E+01 0.212E-21   0.178E-03 -.103E-03 -.120E-07
   0.351E+00 -.101E+02 0.207E-03   -.139E+01 0.146E+02 -.238E-17   0.243E+00 -.214E+01 -.318E-21   -.766E-02 0.217E-03 0.139E-07
   -.165E-02 -.279E+01 0.505E-04   -.110E-08 0.475E+01 -.221E-17   0.000E+00 -.629E+00 0.000E+00   -.429E-07 0.622E-02 -.582E-08
   0.282E+00 -.194E+01 0.102E-04   0.120E+00 0.314E+01 -.183E-17   -.133E+00 -.374E+00 0.132E-22   -.725E-04 0.232E-02 0.221E-07
   0.182E+01 0.724E+00 0.116E-04   -.266E+01 -.167E+01 0.204E-17   0.257E+00 0.302E+00 -.529E-22   -.205E-02 -.110E-02 -.768E-07
   0.860E+01 0.537E+01 0.466E-04   -.120E+02 -.853E+01 0.216E-17   0.173E+01 0.128E+01 0.212E-21   0.364E-02 -.674E-02 -.164E-07
   0.877E+02 0.507E+02 -.625E-04   -.106E+03 -.609E+02 0.411E-18   0.160E+02 0.924E+01 0.000E+00   0.120E-02 0.694E-03 0.649E-08
   -.182E-02 -.101E+03 0.357E-03   0.136E-08 0.122E+03 -.251E-17   0.000E+00 -.185E+02 -.159E-21   0.236E-07 -.139E-02 0.955E-08
   -.354E+00 -.101E+02 -.392E-04   0.139E+01 0.146E+02 -.490E-17   -.243E+00 -.214E+01 -.212E-21   0.766E-02 0.217E-03 0.297E-07
   -.165E+01 -.516E+01 -.876E-05   0.313E+01 0.703E+01 -.348E-17   -.318E+00 -.751E+00 0.000E+00   -.806E-04 -.426E-02 0.409E-07
   0.131E+01 -.758E+00 0.147E-04   -.126E+01 0.728E+00 -.134E-17   0.978E-01 -.564E-01 0.000E+00   0.751E-02 -.433E-02 -.796E-07
   0.364E+01 0.401E+01 -.988E-05   -.452E+01 -.622E+01 0.163E-17   0.491E+00 0.651E+00 0.000E+00   0.365E-02 0.220E-02 0.349E-07
   -.165E-02 0.215E+02 0.163E-03   -.293E-09 -.272E+02 0.194E-17   0.000E+00 0.297E+01 0.000E+00   -.657E-08 0.205E-03 0.200E-07
   -.877E+02 0.507E+02 -.295E-03   0.106E+03 -.609E+02 -.103E-17   -.160E+02 0.924E+01 0.000E+00   -.120E-02 0.694E-03 -.160E-07
   -.186E+02 -.107E+02 -.334E-04   0.236E+02 0.136E+02 -.373E-17   -.257E+01 -.149E+01 0.212E-21   -.178E-03 -.103E-03 -.811E-08
   -.529E+01 0.115E+01 0.136E-04   0.765E+01 -.807E+00 -.262E-17   -.809E+00 0.999E-01 0.000E+00   -.373E-02 0.206E-02 -.418E-07
   -.695E+00 -.401E+00 -.418E-04   0.123E+01 0.711E+00 -.197E-17   -.941E-01 -.544E-01 0.000E+00   0.101E-01 0.581E-02 -.317E-08
   -.166E-02 0.801E+00 0.317E-04   -.114E-08 -.142E+01 0.908E-18   0.000E+00 0.109E+00 0.000E+00   -.137E-07 -.116E-01 0.433E-07
   -.364E+01 0.401E+01 0.820E-04   0.452E+01 -.622E+01 0.282E-17   -.491E+00 0.651E+00 -.529E-22   -.365E-02 0.220E-02 0.352E-07
   -.860E+01 0.537E+01 -.211E-03   0.120E+02 -.853E+01 0.487E-18   -.173E+01 0.128E+01 0.529E-22   -.364E-02 -.674E-02 -.521E-08
   -.895E+01 0.476E+01 0.269E-04   0.134E+02 -.611E+01 -.129E-17   -.197E+01 0.859E+00 0.000E+00   0.402E-02 0.652E-02 -.226E-07
   -.154E+01 0.122E+01 -.752E-05   0.278E+01 -.147E+01 0.253E-19   -.390E+00 0.717E-01 0.000E+00   0.198E-02 -.122E-02 -.287E-07
   -.165E-02 0.152E+01 0.200E-04   0.136E-08 -.146E+01 -.325E-18   0.000E+00 0.113E+00 -.212E-21   -.380E-07 0.867E-02 0.827E-07
   0.692E+00 -.401E+00 0.102E-04   -.123E+01 0.711E+00 0.104E-17   0.941E-01 -.544E-01 0.212E-21   -.101E-01 0.581E-02 -.402E-07
   -.131E+01 -.758E+00 -.344E-04   0.126E+01 0.728E+00 0.123E-17   -.978E-01 -.564E-01 0.000E+00   -.751E-02 -.433E-02 -.305E-08
   -.182E+01 0.724E+00 -.376E-04   0.266E+01 -.167E+01 0.405E-18   -.257E+00 0.302E+00 -.529E-22   0.205E-02 -.110E-02 -.218E-07
   -.242E+01 0.140E+01 -.200E-04   0.411E+01 -.238E+01 0.116E-17   -.545E+00 0.314E+00 0.000E+00   0.538E-02 -.311E-02 0.151E-07
   -.165E-02 0.495E+00 0.339E-04   -.216E-09 -.828E+00 0.199E-17   0.000E+00 0.851E-01 0.000E+00   0.417E-08 -.613E-02 0.587E-08
   0.154E+01 0.122E+01 -.124E-04   -.278E+01 -.147E+01 0.439E-17   0.390E+00 0.717E-01 -.106E-21   -.198E-02 -.122E-02 0.822E-07
   0.529E+01 0.115E+01 -.141E-04   -.765E+01 -.807E+00 0.154E-17   0.809E+00 0.999E-01 0.000E+00   0.373E-02 0.206E-02 -.233E-07
   0.165E+01 -.516E+01 -.625E-04   -.313E+01 0.703E+01 0.833E-18   0.318E+00 -.751E+00 0.000E+00   0.807E-04 -.426E-02 -.460E-07
   -.285E+00 -.194E+01 0.356E-04   -.120E+00 0.314E+01 0.359E-18   0.133E+00 -.374E+00 0.000E+00   0.724E-04 0.232E-02 0.229E-07
   -.430E+00 -.248E+00 -.247E-04   0.716E+00 0.413E+00 0.157E-17   -.737E-01 -.425E-01 -.212E-21   0.531E-02 0.307E-02 -.111E-07
   -.559E-01 -.205E-01 0.465E-05   -.346E-13 -.533E-13 0.000E+00   -.645E-14 0.236E-14 -.124E-21   -.358E-07 -.613E-07 0.178E-09

 POSITION                                       TOTAL-FORCE (eV/Angst)
      1.25633     -0.72829     17.55733         0.002105      0.005069     -0.000000
      2.51497      1.45176     17.55733        -0.003338     -0.004357      0.000000
      3.77545      3.63018     17.55733        -0.000631     -0.000364     -0.000000
      5.01927      5.83751     17.55733        -0.001886      0.003760      0.000000
      6.24687      7.96379     17.55733        -0.004200     -0.000246     -0.000000
      7.53656     10.14463     17.55733        -0.000000      0.000728      0.000000
      2.51199     -2.90758     17.55733        -0.001909     -0.002468      0.000000
      3.76894     -0.72559     17.55733         0.004094     -0.002364     -0.000000
      5.03012      1.45397     17.55733         0.001182      0.002887      0.000000
      6.30895      3.60370     17.55733         0.002313     -0.003514      0.000000
      8.82624      7.96379     17.55733         0.004200     -0.000246      0.000000
      3.78784     -5.06516     17.55733         0.002324      0.001342      0.000000
      5.02765     -2.89815     17.55733         0.000122     -0.006329      0.000000
      6.27978     -0.72939     17.55733         0.005542      0.003059      0.000000
      7.53656      1.42783     17.55733        -0.000000     -0.002683      0.000000
      8.76416      3.60370     17.55733        -0.002313     -0.003514      0.000000
     10.05384      5.83751     17.55733         0.001886      0.003760      0.000000
      5.01843     -7.24888     17.55733        -0.003092     -0.000420      0.000000
      6.28442     -5.07496     17.55733        -0.005420      0.003270      0.000000
      7.53656     -2.90083     17.55733        -0.000000     -0.000000      0.000000
      8.79333     -0.72939     17.55733        -0.005542      0.003059      0.000000
     10.04299      1.45397     17.55733        -0.001182      0.002887      0.000000
     11.29766      3.63018     17.55733         0.000631     -0.000364      0.000000
      6.27791     -9.42597     17.55733         0.005442     -0.000712      0.000000
      7.53656     -7.25131     17.55733        -0.000000      0.004727      0.000000
      8.78869     -5.07496     17.55733         0.005420      0.003270      0.000000
     10.04546     -2.89815     17.55733        -0.000122     -0.006329      0.000000
     11.30417     -0.72559     17.55733        -0.004094     -0.002364      0.000000
     12.55814      1.45176     17.55733         0.003338     -0.004357      0.000000
      7.53656    -11.60333     17.55733        -0.000000     -0.000000      0.000000
      8.79520     -9.42597     17.55733        -0.005442     -0.000712     -0.000000
     10.05468     -7.24888     17.55733         0.003092     -0.000420     -0.000000
     11.28527     -5.06516     17.55733        -0.002324      0.001342     -0.000000
     12.56112     -2.90758     17.55733         0.001909     -0.002468      0.000000
     13.81678     -0.72829     17.55733        -0.002105      0.005069      0.000000
      7.53656      5.80167     17.55733        -0.000000     -0.000000      0.000000
      1.25811      0.72405     17.55733         0.006876     -0.003970     -0.000000
      2.52400      2.90765     17.55733        -0.002978     -0.001719      0.000000
      3.80291      5.08358     17.55733        -0.004058     -0.013189      0.000000
      5.02081      7.25414     17.55733        -0.008186      0.004726      0.000000
      6.29161      9.39415     17.55733         0.009393      0.010109      0.000000
      7.53656     11.58970     17.55733        -0.000000      0.003439      0.000000
      2.50972     -1.45873     17.55733         0.002290     -0.001092      0.000000
      3.77425      0.73150     17.55733         0.002091     -0.001437      0.000000
      5.04785      2.92727     17.55733        -0.013451      0.003080      0.000000
      6.36613      5.12591     17.55733        -0.006965     -0.004021      0.000000
      7.53656      7.15317     17.55733        -0.000000      0.008043      0.000000
      8.78150      9.39415     17.55733        -0.009393      0.010109      0.000000
      3.76691     -3.62743     17.55733        -0.002371      0.004460     -0.000000
      5.02387     -1.45013     17.55733        -0.000872      0.000503     -0.000000
      6.28098      0.72709     17.55733        -0.005048     -0.000177     -0.000000
      7.53656      2.89671     17.55733        -0.000000     -0.009452     -0.000000
      8.70698      5.12591     17.55733         0.006965     -0.004021      0.000000
     10.05230      7.25414     17.55733         0.008186      0.004726      0.000000
      5.02248     -5.80216     17.55733         0.002677     -0.004283      0.000000
      6.27976     -3.62645     17.55733        -0.006102     -0.003523      0.000000
      7.53656     -1.44960     17.55733        -0.000000      0.007046     -0.000000
      8.79213      0.72709     17.55733         0.005048     -0.000177     -0.000000
     10.02526      2.92727     17.55733         0.013451      0.003080     -0.000000
     11.27020      5.08358     17.55733         0.004058     -0.013189      0.000000
      6.27203     -7.97526     17.55733         0.000199      0.002529      0.000000
      7.53656     -5.80225     17.55733        -0.000000     -0.001007      0.000000
      8.79335     -3.62645     17.55733         0.006102     -0.003523     -0.000000
     10.04924     -1.45013     17.55733         0.000872      0.000503      0.000000
     11.29886      0.73150     17.55733        -0.002091     -0.001437      0.000000
     12.54911      2.90765     17.55733         0.002978     -0.001719     -0.000000
      7.53656    -10.15059     17.55733        -0.000000      0.007939     -0.000000
      8.80108     -7.97526     17.55733        -0.000199      0.002529      0.000000
     10.05063     -5.80216     17.55733        -0.002677     -0.004283      0.000000
     11.30620     -3.62743     17.55733         0.002371      0.004460     -0.000000
     12.56339     -1.45873     17.55733        -0.002290     -0.001092     -0.000000
     13.81500      0.72405     17.55733        -0.006876     -0.003970      0.000000
    total drift:                               -0.055945     -0.020471      0.000005

  FREE ENERGIE OF THE ION-ELECTRON SYSTEM (eV)
  free  energy   TOTEN  =      -684.66465241 eV

  energy  without entropy=     -684.66465241  energy(sigma->0) =     -684.66465241

 d Force = 0.9396889E-04[ 0.113E-04, 0.177E-03]  d Energy = 0.9454153E-04-0.573E-06
 d Force =-0.3322711E-01[-0.336E-01,-0.329E-01]  d Ewald  =-0.3322712E-01 0.706E-08

 reached required accuracy - stopping structural energy minimisation
 writing wavefunctions

 total charge

[...]

 magnetization (x)

# of ion       s       p       d       tot
    1        0.000   0.000   0.000   0.000
    2        0.000   0.000   0.000   0.000
    3       -0.000   0.000   0.000   0.000
    4        0.000  -0.000   0.000  -0.000
    5       -0.000  -0.000   0.000  -0.000
    6       -0.000  -0.000   0.000  -0.000
    7        0.000   0.000   0.000   0.000
    8        0.000   0.000   0.000   0.000
    9       -0.000   0.000   0.000   0.000
   10       -0.000   0.000   0.000   0.000
   11       -0.000  -0.000   0.000  -0.000
   12       -0.000  -0.000   0.000  -0.000
   13       -0.000  -0.000   0.000  -0.000
   14       -0.000  -0.000   0.000  -0.000
   15       -0.000   0.000   0.000   0.000
   16       -0.000  -0.000   0.000  -0.000
   17       -0.000  -0.000   0.000  -0.000
   18       -0.000  -0.000   0.000  -0.000
   19       -0.000  -0.000   0.000  -0.000
   20       -0.000   0.000   0.000  -0.000
   21       -0.000  -0.000   0.000  -0.000
   22       -0.000   0.000   0.000   0.000
   23       -0.000  -0.000   0.000  -0.000
   24        0.000   0.000   0.000   0.000
   25        0.000  -0.000   0.000  -0.000
   26       -0.000  -0.000   0.000  -0.000
   27       -0.000   0.000   0.000  -0.000
   28        0.000   0.000   0.000   0.000
   29        0.000   0.000   0.000   0.000
   30        0.000   0.000   0.000   0.000
   31        0.000  -0.000   0.000   0.000
   32        0.000  -0.000   0.000  -0.000
   33       -0.000  -0.000   0.000  -0.000
   34       -0.000   0.000   0.000   0.000
   35        0.000   0.000   0.000   0.000
   36       -0.000   0.000   0.000   0.000
   37       -0.000  -0.000   0.000  -0.000
   38        0.000   0.000   0.000   0.000
   39        0.000  -0.000   0.000  -0.000
   40        0.000   0.000   0.000   0.000
   41        0.000  -0.000   0.000  -0.000
   42        0.000   0.000   0.000   0.000
   43       -0.000   0.000   0.000   0.000
   44       -0.000   0.000   0.000   0.000
   45        0.000  -0.000   0.000  -0.000
   46        0.000  -0.000   0.000  -0.000
   47        0.000  -0.000   0.000  -0.000
   48        0.000  -0.000   0.000  -0.000
   49        0.000  -0.000   0.000  -0.000
   50        0.000  -0.000   0.000   0.000
   51       -0.000  -0.000   0.000  -0.000
   52        0.000  -0.000   0.000   0.000
   53        0.000  -0.000   0.000  -0.000
   54        0.000   0.000   0.000   0.000
   55       -0.000  -0.000   0.000  -0.000
   56        0.000   0.000   0.000   0.000
   57        0.000   0.000   0.000   0.000
   58       -0.000  -0.000   0.000  -0.000
   59        0.000  -0.000   0.000  -0.000
   60        0.000   0.000   0.000   0.000
   61       -0.000   0.000   0.000   0.000
   62        0.000   0.000   0.000   0.000
   63        0.000   0.000   0.000   0.000
   64        0.000  -0.000   0.000   0.000
   65       -0.000   0.000   0.000   0.000
   66        0.000   0.000   0.000   0.000
   67       -0.000   0.000   0.000   0.000
   68       -0.000   0.000   0.000   0.000
   69       -0.000  -0.000   0.000  -0.000
   70        0.000  -0.000   0.000  -0.000
   71       -0.000   0.000   0.000   0.000
   72       -0.000  -0.000   0.000  -0.000
tot         -0.000   0.000   0.000   0.000