 vasp.5.4.4.18Apr17-6-g9f103f2a35 (build May 01 2020 14:57:12) complex

 executed on             LinuxIFC date 2020.10.12  05:55:16

 INCAR:
 POTCAR:    PAW_PBE B 06Sep2000
 POTCAR:    PAW_PBE N 08Apr2002
 POTCAR:    PAW_PBE C 08Apr2002
 POTCAR:    PAW_PBE F 08Apr2002
 POTCAR:    PAW_PBE O 08Apr2002

 POTCAR:    PAW_PBE B 06Sep2000
   VRHFIN =B: s2p1

   TITEL  = PAW_PBE B 06Sep2000
   POMASS =   10.811; ZVAL   =    3.000    mass and valenz
   ENMAX  =  318.614; ENMIN  =  238.960 eV

 POTCAR:    PAW_PBE N 08Apr2002
   VRHFIN =N: s2p3

   TITEL  = PAW_PBE N 08Apr2002
   POMASS =   14.001; ZVAL   =    5.000    mass and valenz
   ENMAX  =  400.000; ENMIN  =  300.000 eV

 POTCAR:    PAW_PBE C 08Apr2002
   VRHFIN =C: s2p2

[...]

 POTCAR:    PAW_PBE F 08Apr2002
   VRHFIN =F: s2p5

[...]

 POTCAR:    PAW_PBE O 08Apr2002
   VRHFIN =O: s2p4

   TITEL  = PAW_PBE O 08Apr2002
   POMASS =   16.000; ZVAL   =    6.000    mass and valenz
   ENMAX  =  400.000; ENMIN  =  300.000 eV

 Optimization of the real space projectors (new method)

 maximal supplied QI-value         = 22.11
 optimisation between [QCUT,QGAM] = [ 11.94, 23.88] = [ 39.92,159.67] Ry
 Optimized for a Real-space Cutoff    1.18 Angstroem

   l    n(q)    QCUT    max X(q) W(low)/X(q) W(high)/X(q)  e(spline)
   0      8    11.939    53.033    0.11E-03    0.34E-03    0.60E-07
   0      8    11.939    34.740    0.11E-03    0.34E-03    0.59E-07
   1      8    11.939    30.949    0.22E-03    0.20E-03    0.17E-06
   1      8    11.939    19.518    0.20E-03    0.18E-03    0.16E-06
 Optimization of the real space projectors (new method)

[...]

   l    n(q)    QCUT    max X(q) W(low)/X(q) W(high)/X(q)  e(spline)
   0      8    11.883    14.049    0.56E-04    0.86E-04    0.22E-06
   0      8    11.883     8.945    0.81E-04    0.11E-03    0.30E-06
   1      8    11.883     7.086    0.16E-03    0.15E-04    0.31E-06
   1      8    11.883     6.747    0.15E-03    0.14E-04    0.28E-06
 Optimization of the real space projectors (new method)

 maximal supplied QI-value         = 24.76
 optimisation between [QCUT,QGAM] = [ 11.88, 24.01] = [ 39.54,161.47] Ry
 Optimized for a Real-space Cutoff    1.18 Angstroem

   l    n(q)    QCUT    max X(q) W(low)/X(q) W(high)/X(q)  e(spline)
   0      8    11.883    20.381    0.86E-04    0.11E-03    0.31E-06
   0      8    11.883    15.268    0.94E-04    0.12E-03    0.33E-06
   1      8    11.883     5.964    0.19E-03    0.18E-04    0.33E-06
   1      8    11.883     5.382    0.17E-03    0.20E-04    0.29E-06
  PAW_PBE B 06Sep2000                   :
  PAW_PBE N 08Apr2002                   :
  PAW_PBE C 08Apr2002                   :
  PAW_PBE F 08Apr2002                   :
  PAW_PBE O 08Apr2002                   :

 POSCAR: B N C F O
  positions in direct lattice
  velocities in cartesian coordinates

 METAGGA = SCAN     LMAXTAU =  6    LMIXTAU =  F

 ion  position               nearest neighbor table
   1  0.111  0.056  0.500-  42 1.45  37 1.45  43 1.45
   2  0.111  0.222  0.500-  38 1.45  37 1.45  44 1.45
   3  0.111  0.389  0.500-  39 1.45  38 1.45  45 1.45
   4  0.111  0.556  0.500-  46 1.45  39 1.45  40 1.45
   5  0.111  0.722  0.500-  40 1.45  47 1.45  41 1.45
   6  0.111  0.889  0.500-  41 1.45  48 1.45  42 1.45
   7  0.278  0.056  0.500-  48 1.45  49 1.45  43 1.45
   8  0.278  0.222  0.500-  43 1.45  44 1.45  50 1.45
   9  0.278  0.389  0.500-  45 1.45  51 1.45  44 1.45
  10  0.278  0.556  0.500-  46 1.45  52 1.45  45 1.45
  11  0.278  0.722  0.500-  46 1.45  53 1.45  47 1.45
  12  0.278  0.889  0.500-  47 1.45  54 1.45  48 1.45
  13  0.444  0.056  0.500-  55 1.45  54 1.45  49 1.45
  14  0.444  0.222  0.500-  56 1.45  49 1.45  50 1.45
  15  0.444  0.389  0.500-  57 1.45  51 1.45  50 1.45
  16  0.444  0.556  0.500-  52 1.45  58 1.45  51 1.45
  17  0.444  0.722  0.500-  59 1.45  53 1.45  52 1.45
  18  0.444  0.889  0.500-  53 1.45  60 1.45  54 1.45
  19  0.611  0.056  0.500-  60 1.45  61 1.45  55 1.45
  20  0.611  0.222  0.500-  62 1.45  55 1.45  56 1.45
  21  0.611  0.389  0.500-  63 1.45  56 1.45  57 1.45
  22  0.611  0.556  0.500-  58 1.45  64 1.45  57 1.45
  23  0.611  0.722  0.500-  59 1.45  65 1.45  58 1.45
  24  0.611  0.889  0.500-  59 1.45  66 1.45  60 1.45
  25  0.778  0.056  0.500-  67 1.45  66 1.45  61 1.45
  26  0.778  0.222  0.500-  68 1.45  61 1.45  62 1.45
  27  0.778  0.389  0.500-  63 1.45  69 1.45  62 1.45
  28  0.778  0.556  0.500-  64 1.45  63 1.45  70 1.45
  29  0.778  0.722  0.500-  64 1.45  65 1.45  71 1.45
  30  0.778  0.889  0.500-  65 1.45  66 1.45  72 1.45
  31  0.944  0.056  0.500-  67 1.45  72 1.45  37 1.45
  32  0.944  0.222  0.500-  67 1.45  68 1.45  38 1.45
  33  0.944  0.389  0.500-  39 1.45  68 1.45  69 1.45
  34  0.944  0.556  0.500-  40 1.45  69 1.45  70 1.45
  35  0.944  0.722  0.500-  70 1.45  71 1.45  41 1.45
  36  0.944  0.889  0.500-  71 1.45  72 1.45  42 1.45
  37  0.056  0.111  0.500-   2 1.45   1 1.45  31 1.45
  38  0.056  0.278  0.500-   2 1.45   3 1.45  32 1.45
  39  0.056  0.444  0.500-   3 1.45  33 1.45   4 1.45
  40  0.056  0.611  0.500-   5 1.45  34 1.45   4 1.45
  41  0.056  0.778  0.500-   6 1.45  35 1.45   5 1.45
  42  0.056  0.944  0.500-   1 1.45   6 1.45  36 1.45
  43  0.222  0.111  0.500-   8 1.45   7 1.45   1 1.45
  44  0.222  0.278  0.500-   8 1.45   9 1.45   2 1.45
  45  0.222  0.444  0.500-   9 1.45   3 1.45  10 1.45
  46  0.222  0.611  0.500-  11 1.45  10 1.45   4 1.45
  47  0.222  0.778  0.500-  12 1.45   5 1.45  11 1.45
  48  0.222  0.944  0.500-   7 1.45   6 1.45  12 1.45
  49  0.389  0.111  0.500-  14 1.45   7 1.45  13 1.45
  50  0.389  0.278  0.500-   8 1.45  15 1.45  14 1.45
  51  0.389  0.444  0.500-   9 1.45  15 1.45  16 1.45
  52  0.389  0.611  0.500-  16 1.45  10 1.45  17 1.45
  53  0.389  0.778  0.500-  18 1.45  11 1.45  17 1.45
  54  0.389  0.944  0.500-  13 1.45  12 1.45  18 1.45
  55  0.556  0.111  0.500-  20 1.45  13 1.45  19 1.45
  56  0.556  0.278  0.500-  14 1.45  21 1.45  20 1.45
  57  0.556  0.444  0.500-  15 1.45  21 1.45  22 1.45
  58  0.556  0.611  0.500-  16 1.45  22 1.45  23 1.45
  59  0.556  0.778  0.500-  24 1.45  17 1.45  23 1.45
  60  0.556  0.944  0.500-  19 1.45  18 1.45  24 1.45
[...]
  68  0.889  0.278  0.500-  32 1.45  26 1.45  33 1.45
  69  0.889  0.444  0.500-  27 1.45  34 1.45  33 1.45
  70  0.889  0.611  0.500-  35 1.45  34 1.45  28 1.45
  71  0.889  0.778  0.500-  36 1.45  35 1.45  29 1.45
  72  0.889  0.944  0.500-  31 1.45  36 1.45  30 1.45
  73  0.373  0.313  0.673-  76 1.34  78 1.34  77 1.34  74 1.54
  74  0.354  0.316  0.630-  80 1.36  79 1.36  73 1.54  75 1.54
  75  0.343  0.409  0.618-  82 1.25  81 1.25  74 1.54
  76  0.461  0.396  0.684-  73 1.34
  77  0.377  0.229  0.682-  73 1.34
  78  0.296  0.312  0.693-  73 1.34
  79  0.434  0.318  0.612-  74 1.36
  80  0.268  0.227  0.622-  74 1.36
  81  0.424  0.491  0.612-  75 1.25
  82  0.254  0.395  0.615-  75 1.25

IMPORTANT INFORMATION: All symmetrisations will be switched off!
NOSYMM: (Re-)initialisation of all symmetry stuff for point group C_1.

 KPOINTS: K-Point Grid

Automatic generation of k-mesh.
Space group operators:
 irot       det(A)        alpha          n_x          n_y          n_z        tau_x        tau_y        tau_z
    1     1.000000     0.000000     1.000000     0.000000     0.000000     0.000000     0.000000     0.000000

 Subroutine IBZKPT returns following result:

 Found      5 irreducible k-points:

 Following reciprocal coordinates:
            Coordinates               Weight
  0.000000  0.000000  0.000000      1.000000
  0.333333  0.000000  0.000000      2.000000
  0.000000  0.333333  0.000000      2.000000
  0.333333  0.333333  0.000000      2.000000
 -0.333333  0.333333  0.000000      2.000000

 Following cartesian coordinates:
            Coordinates               Weight
  0.000000  0.000000  0.000000      1.000000
  0.022114 -0.012768  0.000000      2.000000
  0.022114  0.012768  0.000000      2.000000
  0.044229  0.000000  0.000000      2.000000
  0.000000  0.025535  0.000000      2.000000

 SYSTEM =  SiC
 POSCAR =  B N C F O

 Startparameter for this run:
   NWRITE =      2    write-flag & timer
   PREC   = accura    normal or accurate (medium, high low for compatibility)
   ISTART =      1    job   : 0-new  1-cont  2-samecut
   ICHARG =      0    charge: 1-file 2-atom 10-const
   ISPIN  =      2    spin polarized calculation?
   LNONCOLLINEAR =      F non collinear calculations
   LSORBIT =      F    spin-orbit coupling
   INIWAV =      1    electr: 0-lowe 1-rand  2-diag
   LASPH  =      T    aspherical Exc in radial PAW
   METAGGA=      F    non-selfconsistent MetaGGA calc.

 Electronic Relaxation 1
   ENCUT  =  550.0 eV  40.42 Ry    6.36 a.u.  28.82 28.82 67.15*2*pi/ulx,y,z
   ENINI  =  550.0     initial cutoff
   ENAUG  =  644.9 eV  augmentation charge cutoff
   NELM   =    100;   NELMIN=  2; NELMDL=  0     # of ELM steps
   EDIFF  = 0.1E-04   stopping-criterion for ELM
   LREAL  =      T    real-space projection
   NLSPLINE    = F    spline interpolate recip. space projectors
   LCOMPAT=      F    compatible to vasp.4.4
   GGA_COMPAT  = T    GGA compatible to vasp.4.4-vasp.4.6
   LMAXPAW     = -100 max onsite density
   LMAXMIX     =    2 max onsite mixed and CHGCAR
   VOSKOWN=      0    Vosko Wilk Nusair interpolation
   ROPT   =   -0.00025  -0.00025  -0.00025  -0.00025
   ROPT   =   -0.00025
 Ionic relaxation
   EDIFFG = -.2E-01   stopping-criterion for IOM
   NSW    =    500    number of steps for IOM
   NBLOCK =      1;   KBLOCK =    500    inner block; outer block
   IBRION =      2    ionic relax: 0-MD 1-quasi-New 2-CG
   NFREE  =      1    steps in history (QN), initial steepest desc. (CG)
   ISIF   =      2    stress and relaxation
   IWAVPR =     11    prediction:  0-non 1-charg 2-wave 3-comb
   ISYM   =      0    0-nonsym 1-usesym 2-fastsym
   LCORR  =      T    Harris-Foulkes like correction to forces

   POTIM  = 0.5000    time-step for ionic-motion
   TEIN   =    0.0    initial temperature
   TEBEG  =    0.0;   TEEND  =   0.0 temperature during run
   SMASS  =  -3.00    Nose mass-parameter (am)
   estimated Nose-frequenzy (Omega)   =  0.10E-29 period in steps =****** mass=  -0.519E-26a.u.
   SCALEE = 1.0000    scale energy and forces
   NPACO  =    256;   APACO  = 16.0  distance and # of slots for P.C.
   PSTRESS=    0.0 pullay stress

  Mass of Ions in am
   POMASS =  10.81 14.00 12.01 19.00 16.00
  Ionic Valenz
   ZVAL   =   3.00  5.00  4.00  7.00  6.00
  Atomic Wigner-Seitz radii
  virtual crystal weights
   VCA    =   1.00  1.00  1.00  1.00  1.00
   NELECT =     345.9000    total number of electrons
   NUPDOWN=      -1.0000    fix difference up-down

 DOS related values:
   EMIN   =  10.00;   EMAX   =-10.00  energy-range for DOS
   EFERMI =   0.00
   ISMEAR =     0;   SIGMA  =   0.05  broadening in eV -4-tet -1-fermi 0-gaus

 Electronic relaxation 2 (details)
   IALGO  =     68    algorithm
   LDIAG  =      T    sub-space diagonalisation (order eigenvalues)
   LSUBROT=      F    optimize rotation matrix (better conditioning)
   TURBO    =      0    0=normal 1=particle mesh
   IRESTART =      0    0=no restart 2=restart with 2 vectors
   NREBOOT  =      0    no. of reboots
[...]
   -.225E+01 -.253E+01 0.437E+02   0.215E+01 0.252E+01 -.432E+02   0.466E-03 -.180E-03 0.383E-03   0.343E-03 0.630E-04 -.161E-02
   0.155E+02 -.511E+01 0.504E+02   -.153E+02 0.511E+01 -.499E+02   0.102E-02 -.914E-03 0.509E-03   -.797E-03 0.337E-04 -.185E-02
   0.129E+02 -.105E+02 0.508E+02   -.126E+02 0.104E+02 -.502E+02   0.783E-03 -.369E-03 -.593E-04   -.976E-03 0.550E-03 -.210E-02
   0.329E+01 -.783E+01 0.463E+02   -.316E+01 0.765E+01 -.458E+02   -.618E-03 0.149E-03 -.179E-03   -.464E-03 0.699E-03 -.186E-02
   -.317E+01 -.811E+00 0.427E+02   0.316E+01 0.734E+00 -.422E+02   -.121E-03 0.701E-04 0.582E-03   0.492E-04 0.262E-03 -.153E-02
   -.126E+01 0.283E+01 0.425E+02   0.121E+01 -.281E+01 -.421E+02   0.404E-03 0.343E-04 0.749E-03   0.184E-03 -.109E-03 -.144E-02
   0.782E+01 0.120E+01 0.458E+02   -.779E+01 -.115E+01 -.453E+02   0.472E-03 -.326E-04 0.664E-03   -.169E-03 -.182E-03 -.154E-02
   0.402E+02 -.874E+01 0.106E+03   -.397E+02 0.883E+01 -.104E+03   0.491E-02 -.829E-04 -.223E-03   -.219E-02 -.321E-03 -.404E-02
   0.299E+02 -.294E+02 0.107E+03   -.293E+02 0.291E+02 -.106E+03   -.563E-03 -.658E-02 0.407E-02   -.238E-02 0.129E-02 -.519E-02
   0.846E+01 -.284E+02 0.877E+02   -.821E+01 0.278E+02 -.865E+02   -.105E-02 -.146E-02 0.357E-02   -.934E-03 0.208E-02 -.415E-02
   0.659E-01 -.104E+02 0.719E+02   -.609E-01 0.101E+02 -.711E+02   0.379E-03 0.157E-02 -.238E-02   0.955E-05 0.106E-02 -.273E-02
   0.813E+01 0.428E+01 0.715E+02   -.811E+01 -.431E+01 -.707E+02   0.981E-03 0.838E-03 -.365E-02   -.452E-04 0.363E-04 -.236E-02
   0.271E+02 0.688E+01 0.857E+02   -.268E+02 -.675E+01 -.849E+02   0.309E-02 0.153E-02 -.195E-02   -.845E-03 -.535E-03 -.278E-02
   0.414E+02 0.186E+02 0.130E+03   -.410E+02 -.182E+02 -.129E+03   0.132E-01 0.670E-02 0.192E-02   -.188E-02 -.158E-02 -.436E-02
   0.339E+02 -.163E+02 0.162E+03   -.334E+02 0.166E+02 -.160E+03   0.115E-01 -.857E-02 0.655E-02   -.239E-02 -.723E-03 -.765E-02
   0.598E+01 -.455E+02 0.137E+03   -.576E+01 0.450E+02 -.134E+03   -.808E-03 -.163E-01 0.208E-01   -.810E-03 0.233E-02 -.799E-02
   -.485E+01 -.314E+02 0.900E+02   0.474E+01 0.308E+02 -.887E+02   0.601E-03 -.659E-03 0.472E-02   0.411E-03 0.266E-02 -.446E-02
   0.430E+01 -.340E+01 0.737E+02   -.435E+01 0.314E+01 -.729E+02   0.860E-03 0.169E-02 -.250E-02   0.191E-03 0.815E-03 -.263E-02
   0.232E+02 0.182E+02 0.879E+02   -.230E+02 -.180E+02 -.870E+02   0.372E-02 0.232E-02 -.189E-02   -.580E-03 -.524E-03 -.268E-02
   0.173E+02 0.390E+02 0.114E+03   -.171E+02 -.387E+02 -.113E+03   0.446E-02 0.521E-02 -.110E-02   -.710E-03 -.160E-02 -.346E-02
   0.643E+01 0.293E+02 0.171E+03   -.619E+01 -.288E+02 -.169E+03   -.714E-03 0.114E-01 -.199E-02   -.845E-03 -.262E-02 -.644E-02
   -.216E+02 -.161E+02 0.175E+03   0.216E+02 0.164E+02 -.172E+03   -.164E-01 -.927E-02 0.587E-02   0.537E-03 -.607E-03 -.954E-02
   -.274E+02 -.355E+02 0.119E+03   0.270E+02 0.350E+02 -.117E+03   -.589E-03 -.520E-02 0.679E-02   0.193E-02 0.224E-02 -.694E-02
   -.108E+02 -.143E+02 0.801E+02   0.105E+02 0.139E+02 -.790E+02   0.121E-02 0.815E-03 0.252E-02   0.114E-02 0.154E-02 -.340E-02
   0.646E+01 0.149E+02 0.794E+02   -.650E+01 -.149E+02 -.786E+02   0.161E-02 0.175E-02 -.184E-02   0.916E-04 -.348E-04 -.249E-02
   0.468E+00 0.267E+02 0.840E+02   -.461E+00 -.265E+02 -.832E+02   -.119E-03 0.159E-02 -.205E-03   -.487E-04 -.636E-03 -.259E-02
   -.129E+02 0.423E+02 0.118E+03   0.129E+02 -.418E+02 -.117E+03   -.557E-02 0.491E-02 -.130E-02   0.829E-04 -.212E-02 -.386E-02
   -.394E+02 0.236E+02 0.141E+03   0.392E+02 -.230E+02 -.139E+03   -.147E-01 0.566E-02 0.711E-02   0.139E-02 -.244E-02 -.616E-02
   -.448E+02 -.835E+01 0.120E+03   0.441E+02 0.846E+01 -.118E+03   -.433E-02 -.745E-04 0.565E-02   0.287E-02 -.279E-03 -.641E-02
   -.244E+02 -.139E+02 0.847E+02   0.239E+02 0.136E+02 -.835E+02   0.386E-03 0.214E-03 0.311E-02   0.204E-02 0.101E-02 -.388E-02
   -.536E+01 0.279E+01 0.720E+02   0.518E+01 -.292E+01 -.712E+02   0.644E-03 0.124E-02 -.212E-02   0.547E-03 0.411E-03 -.251E-02
[...]
   -.469E+01 0.416E-01 0.737E+02   0.474E+01 -.158E+00 -.729E+02   -.629E-03 0.516E-03 -.341E-02   -.147E-03 0.393E-03 -.259E-02
   -.112E+02 0.607E+01 0.728E+02   0.110E+02 -.602E+01 -.720E+02   0.711E-03 0.308E-03 -.320E-02   0.460E-03 -.219E-03 -.251E-02
   -.306E+01 0.390E+01 0.733E+02   0.293E+01 -.380E+01 -.725E+02   0.132E-02 -.139E-03 -.254E-02   0.413E-03 -.330E-03 -.254E-02
   0.125E+02 -.323E+01 0.759E+02   -.124E+02 0.326E+01 -.751E+02   0.101E-02 -.133E-03 -.296E-02   -.332E-03 -.918E-04 -.264E-02
   0.636E+00 0.224E+02 -.419E+03   -.128E+01 -.201E+02 0.409E+03   0.844E+00 -.165E+01 0.999E+01   -.157E-02 -.525E-02 0.430E-02
   -.713E+01 -.355E+02 -.318E+03   0.129E+02 0.455E+02 0.324E+03   -.528E+01 -.898E+01 -.425E+01   -.497E-02 -.117E-01 0.186E-02
   -.328E+02 -.939E+02 -.306E+03   0.323E+02 0.929E+02 0.309E+03   0.115E+01 0.235E+01 -.337E+00   -.675E-02 -.160E-01 0.285E-02
   -.537E+03 0.837E+02 -.914E+03   0.593E+03 -.861E+02 0.931E+03   -.556E+02 0.344E+01 -.164E+02   0.178E-02 -.910E-02 0.813E-02
   0.245E+03 0.526E+03 -.875E+03   -.270E+03 -.575E+03 0.891E+03   0.255E+02 0.499E+02 -.139E+02   -.314E-02 -.630E-02 0.382E-02
   0.248E+03 -.359E+03 -.104E+04   -.273E+03 0.402E+03 0.107E+04   0.254E+02 -.418E+02 -.309E+02   -.308E-02 -.408E-02 0.100E-01
   -.213E+03 0.432E+03 -.311E+03   0.239E+03 -.471E+03 0.288E+03   -.244E+02 0.404E+02 0.269E+02   -.379E-02 -.162E-01 -.403E-02
   0.562E+03 0.400E+02 -.438E+03   -.615E+03 -.395E+02 0.429E+03   0.529E+02 0.135E+01 0.134E+02   -.108E-01 -.140E-01 -.166E-02
   -.448E+03 -.156E+03 -.427E+03   0.501E+03 0.159E+03 0.422E+03   -.507E+02 -.108E+01 0.859E+01   0.160E-01 -.369E-02 -.207E-02
   0.186E+03 -.451E+03 -.463E+03   -.218E+03 0.493E+03 0.462E+03   0.318E+02 -.403E+02 0.433E+01   -.125E-01 0.880E-02 -.368E-02
   -.152E+01 -.356E+01 0.285E+01   0.341E-12 -.227E-12 0.114E-12   0.156E+01 0.362E+01 -.264E+01   -.287E-01 -.777E-01 -.207E+00

 POSITION                                       TOTAL-FORCE (eV/Angst)
      1.25600     -0.72515     17.55792         0.000014      0.000126      0.000538
      2.51203      1.45056     17.55734        -0.000019      0.000016      0.001635
      3.76823      3.62612     17.55614        -0.000135      0.000113      0.001065
      5.02436      5.80168     17.55670        -0.000124      0.000014      0.000285
      6.28044      7.97730     17.55777        -0.000083      0.000199     -0.000132
      7.53653     10.15294     17.55816        -0.000126      0.000056      0.000115
      2.51213     -2.90087     17.55824         0.000106      0.000109      0.000641
      3.76810     -0.72524     17.55717        -0.000155      0.000076      0.002375
      5.02434      1.45067     17.55539        -0.000103      0.000416      0.002588
      6.28047      3.62610     17.55580         0.000235      0.000297      0.002052
      7.53653      5.80167     17.55692        -0.000081     -0.000053      0.000112
      8.79262      7.97730     17.55801        -0.000083      0.000139     -0.000061
      3.76826     -5.07648     17.55830         0.000149      0.000363      0.000332
      5.02435     -2.90096     17.55851        -0.000143     -0.000053      0.001294
      6.28061     -0.72523     17.55659         0.000185     -0.000036      0.002800
      7.53663      1.45053     17.55649         0.000222      0.000288      0.002346
      8.79265      3.62606     17.55655        -0.000110     -0.000002      0.000927
     10.04871      5.80167     17.55756        -0.000053     -0.000025     -0.000111
      5.02435     -7.25207     17.55802         0.000065      0.000025      0.000045
      6.28045     -5.07648     17.55824        -0.000125      0.000079      0.000515
      7.53657     -2.90085     17.55772        -0.000034      0.000126      0.001261
      8.79267     -0.72513     17.55697        -0.000118     -0.000029      0.001725
     10.04871      1.45047     17.55686        -0.000024      0.000061      0.000858
     11.30480      3.62606     17.55743         0.000025      0.000130     -0.000039
      6.28044     -9.42769     17.55787         0.000023      0.000181     -0.000089
      7.53654     -7.25205     17.55785        -0.000171      0.000027     -0.000008
      8.79264     -5.07642     17.55786        -0.000114      0.000281     -0.000045
     10.04871     -2.90079     17.55758        -0.000090      0.000088      0.000193
     11.30479     -0.72517     17.55745        -0.000074      0.000121      0.000164
     12.56088      1.45045     17.55767        -0.000246      0.000085     -0.000138
      7.53650    -11.60327     17.55783         0.000260      0.000083      0.000071
      8.79260     -9.42766     17.55734         0.000007      0.000040      0.000328
     10.04873     -7.25205     17.55725         0.000122     -0.000221      0.000018
     11.30481     -5.07643     17.55773         0.000057      0.000121     -0.000256
     12.56089     -2.90080     17.55798         0.000068      0.000023     -0.000031
     13.81698     -0.72517     17.55801         0.000029     -0.000059     -0.000004
      1.25607      0.72525     17.55761         0.000279      0.000149      0.000508
      2.51217      2.90087     17.55663         0.000138     -0.000132      0.001097
      3.76826      5.07650     17.55636         0.000087     -0.000064      0.000602
      5.02435      7.25210     17.55736        -0.000013      0.000173     -0.000140
      6.28044      9.42773     17.55803        -0.000095      0.000096     -0.000006
      7.53652     11.60336     17.55803        -0.000083      0.000067      0.000203
      2.51214     -1.45040     17.55780         0.000077      0.000228      0.001111
      3.76832      0.72523     17.55715        -0.000305      0.000086      0.002783
      5.02435      2.90089     17.55472        -0.000043      0.000334      0.002313
      6.28045      5.07649     17.55606        -0.000020     -0.000251      0.000729
      7.53654      7.25210     17.55754        -0.000127      0.000136     -0.000110
      8.79262      9.42772     17.55814        -0.000058      0.000078      0.000177
      3.76826     -3.62602     17.55843         0.000083      0.000096      0.000817
      5.02435     -1.45032     17.55836        -0.000170      0.000047      0.002360
      6.28030      0.72522     17.55647         0.000098     -0.000061      0.002770
      7.53652      2.90083     17.55578        -0.000003      0.000038      0.002126
      8.79263      5.07647     17.55674        -0.000204     -0.000125      0.000190
     10.04872      7.25209     17.55794        -0.000003      0.000233     -0.000041
      5.02435     -5.80165     17.55814        -0.000060     -0.000019      0.000397
      6.28043     -3.62601     17.55826         0.000037      0.000337      0.001119
      7.53652     -1.45038     17.55686         0.000155      0.000051      0.002229
      8.79256      0.72526     17.55634        -0.000060      0.000070      0.001976
     10.04873      2.90087     17.55664        -0.000330      0.000050      0.000541
     11.30481      5.07648     17.55764         0.000185      0.000144     -0.000110
[...]
      8.79263     -7.97726     17.55733        -0.000086      0.000070      0.000034
     10.04872     -5.80163     17.55762         0.000062      0.000050     -0.000277
     11.30481     -3.62601     17.55778         0.000100      0.000078     -0.000113
     12.56089     -1.45038     17.55781         0.000095     -0.000021      0.000005
     13.81699      0.72524     17.55784        -0.000105      0.000056     -0.000074
      5.16958     -0.77220     23.63761         0.002319      0.004101     -0.011404
      5.05124     -0.48771     22.13149         0.002494      0.003356     -0.004139
      5.66436      0.86443     21.69805         0.000042      0.002854     -0.011017
      6.45766     -0.84730     24.00681        -0.006351      0.006754      0.000154
      4.57379     -1.93537     23.94945         0.002842      0.001589     -0.007075
      4.57800      0.20735     24.34182         0.004266     -0.004350     -0.004018
      5.66417     -1.51830     21.47996        -0.004653     -0.000839     -0.000016
      3.72478     -0.53507     21.82368         0.003654     -0.004729     -0.001942
      6.89563      0.88027     21.49716        -0.015887     -0.002491     -0.008156
      4.88851      1.83555     21.59990         0.013036     -0.012401     -0.000166
    total drift:                                0.003359     -0.011990      0.002601

  FREE ENERGIE OF THE ION-ELECTRON SYSTEM (eV)
  free  energy   TOTEN  =      -772.10306519 eV

  energy  without entropy=     -772.05246711  energy(sigma->0) =     -772.07776615

 d Force = 0.1727547E-04[ 0.143E-04, 0.202E-04]  d Energy =-0.2674701E-04 0.440E-04
 d Force =-0.5711042E+00[-0.571E+00,-0.571E+00]  d Ewald  =-0.5711042E+00-0.130E-08

 Conjugate gradient step on ions:
 trial-energy change:    0.000027  1 .order   -0.000017   -0.000020   -0.000014
  (g-gl).g = 0.641E-04      g.g   = 0.122E-03  gl.gl    = 0.133E-03
 g(Force)  = 0.122E-03   g(Stress)= 0.000E+00 ortho     = 0.202E-04
 gamma     =   0.48268
 trial     =   0.15322
 opt step  =   0.52689  (harmonic =   0.52689) maximal distance =0.00031090
 next E    =  -772.103127   (d E  =  -0.00003)

 reached required accuracy - stopping structural energy minimisation
 writing wavefunctions

 total charge

[...]

 magnetization (x)

# of ion       s       p       d       tot
    1        0.000   0.000   0.000   0.000
    2       -0.000  -0.000   0.000  -0.000
    3       -0.000  -0.000   0.000  -0.000
    4        0.000   0.000   0.000   0.000
    5        0.000   0.000   0.000   0.000
    6        0.000   0.000   0.000   0.000
    7        0.000   0.000   0.000   0.000
    8       -0.000  -0.000   0.000  -0.000
    9       -0.000  -0.000   0.000  -0.000
   10       -0.000  -0.000   0.000  -0.000
   11        0.000   0.000   0.000   0.000
   12        0.000   0.000   0.000   0.000
   13        0.000   0.000   0.000   0.000
   14        0.000   0.000   0.000   0.000
   15        0.000   0.000   0.000   0.000
   16       -0.000  -0.000   0.000  -0.000
   17       -0.000  -0.000   0.000  -0.000
   18        0.000   0.000   0.000   0.000
   19        0.000   0.000   0.000   0.000
   20        0.000   0.000   0.000   0.000
   21        0.000   0.000   0.000   0.000
   22        0.000   0.000   0.000   0.000
   23        0.000   0.000   0.000   0.000
   24        0.000   0.000   0.000   0.000
   25        0.000   0.000   0.000   0.000
   26        0.000   0.000   0.000   0.000
   27        0.000   0.000   0.000   0.000
   28        0.000   0.000   0.000   0.000
   29        0.000   0.000   0.000   0.000
   30        0.000   0.000   0.000   0.000
   31        0.000   0.000   0.000   0.000
   32        0.000   0.000   0.000   0.000
   33        0.000   0.000   0.000   0.000
   34        0.000   0.000   0.000   0.000
   35        0.000   0.000   0.000   0.000
   36        0.000   0.000   0.000   0.000
   37       -0.000   0.000   0.000   0.000
   38       -0.000  -0.000   0.000  -0.000
   39        0.000   0.000   0.000   0.000
   40       -0.000  -0.000   0.000  -0.000
   41       -0.000  -0.000   0.000  -0.000
   42       -0.000  -0.000   0.000  -0.000
   43       -0.000  -0.000   0.000  -0.000
   44        0.000   0.000   0.000   0.000
   45        0.000   0.000   0.000   0.000
   46       -0.000  -0.000   0.000  -0.000
   47       -0.000  -0.000   0.000  -0.000
   48       -0.000  -0.000   0.000  -0.000
   49       -0.000  -0.000   0.000  -0.000
   50        0.000   0.000   0.000   0.000
   51       -0.000  -0.000   0.000  -0.000
   52        0.000   0.000   0.000   0.000
   53       -0.000  -0.000   0.000  -0.000
   54       -0.000  -0.000   0.000  -0.000
   55       -0.000  -0.000   0.000  -0.000
   56       -0.000  -0.000   0.000  -0.000
   57       -0.000  -0.000   0.000  -0.000
   58       -0.000  -0.000   0.000  -0.000
   59       -0.000  -0.000   0.000  -0.000
   60       -0.000  -0.000   0.000  -0.000
[...]
   68       -0.000  -0.000   0.000  -0.000
   69       -0.000  -0.000   0.000  -0.000
   70       -0.000  -0.000   0.000  -0.000
   71       -0.000  -0.000   0.000  -0.000
   72       -0.000  -0.000   0.000  -0.000
   73       -0.000  -0.000   0.000  -0.000
   74       -0.001  -0.002   0.000  -0.002
   75       -0.002  -0.011   0.000  -0.013
   76        0.000   0.000   0.000   0.000
   77       -0.000  -0.000   0.000  -0.000
   78        0.000   0.000   0.000   0.000
   79        0.000   0.003   0.000   0.003
   80        0.000   0.004   0.000   0.004
   81        0.002   0.152   0.000   0.154
   82        0.002   0.150   0.000   0.151
tot          0.001   0.296   0.000   0.297