 vasp.5.4.4.18Apr17-6-g9f103f2a35 (build Jun 11 2020 13:42:08) complex

 executed on             LinuxIFC date 2020.12.02  19:21:39

 INCAR:
 POTCAR:    PAW_PBE B 06Sep2000
 POTCAR:    PAW_PBE N 08Apr2002
 POTCAR:    PAW_PBE C 08Apr2002
 POTCAR:    PAW_PBE F 08Apr2002
 POTCAR:    PAW_PBE O 08Apr2002

 POTCAR:    PAW_PBE B 06Sep2000
   VRHFIN =B: s2p1

   TITEL  = PAW_PBE B 06Sep2000
   POMASS =   10.811; ZVAL   =    3.000    mass and valenz
   ENMAX  =  318.614; ENMIN  =  238.960 eV

 POTCAR:    PAW_PBE N 08Apr2002
   VRHFIN =N: s2p3

   TITEL  = PAW_PBE N 08Apr2002
   POMASS =   14.001; ZVAL   =    5.000    mass and valenz
   ENMAX  =  400.000; ENMIN  =  300.000 eV

 POTCAR:    PAW_PBE C 08Apr2002
   VRHFIN =C: s2p2

[...]

 POTCAR:    PAW_PBE F 08Apr2002
   VRHFIN =F: s2p5

[...]

 POTCAR:    PAW_PBE O 08Apr2002
   VRHFIN =O: s2p4

   TITEL  = PAW_PBE O 08Apr2002
   POMASS =   16.000; ZVAL   =    6.000    mass and valenz
   ENMAX  =  400.000; ENMIN  =  300.000 eV

 Optimization of the real space projectors (new method)

 maximal supplied QI-value         = 22.11
 optimisation between [QCUT,QGAM] = [ 11.94, 23.88] = [ 39.92,159.67] Ry
 Optimized for a Real-space Cutoff    1.11 Angstroem

   l    n(q)    QCUT    max X(q) W(low)/X(q) W(high)/X(q)  e(spline)
   0      8    11.939    53.033    0.41E-03    0.69E-03    0.53E-07
   0      8    11.939    34.740    0.40E-03    0.68E-03    0.52E-07
   1      7    11.939    30.949    0.26E-03    0.22E-03    0.14E-06
   1      7    11.939    19.518    0.24E-03    0.20E-03    0.13E-06
 Optimization of the real space projectors (new method)

[...]

   l    n(q)    QCUT    max X(q) W(low)/X(q) W(high)/X(q)  e(spline)
   0      7    11.883    14.049    0.20E-03    0.16E-03    0.14E-06
   0      7    11.883     8.945    0.29E-03    0.20E-03    0.19E-06
   1      7    11.883     7.086    0.38E-03    0.88E-04    0.22E-06
   1      7    11.883     6.747    0.34E-03    0.55E-04    0.20E-06
 Optimization of the real space projectors (new method)

 maximal supplied QI-value         = 24.76
 optimisation between [QCUT,QGAM] = [ 11.88, 24.01] = [ 39.54,161.47] Ry
 Optimized for a Real-space Cutoff    1.05 Angstroem

   l    n(q)    QCUT    max X(q) W(low)/X(q) W(high)/X(q)  e(spline)
   0      7    11.883    20.381    0.32E-03    0.21E-03    0.20E-06
   0      7    11.883    15.268    0.35E-03    0.22E-03    0.22E-06
   1      7    11.883     5.964    0.44E-03    0.69E-04    0.24E-06
   1      7    11.883     5.382    0.38E-03    0.34E-04    0.20E-06
  PAW_PBE B 06Sep2000                   :
  PAW_PBE N 08Apr2002                   :
  PAW_PBE C 08Apr2002                   :
  PAW_PBE F 08Apr2002                   :
  PAW_PBE O 08Apr2002                   :

 POSCAR: B N C F O
  positions in direct lattice
  velocities in cartesian coordinates

 METAGGA = SCAN     LMAXTAU =  6    LMIXTAU =  F

 VTST: version 3.1, (03/28/14)

 CHAIN: initializing optimizer

 OPT: Using VASP Dynamics algorithm
 CHAIN: Read ICHAIN            0

 POSCAR: B N C F O
  positions in direct lattice
  velocities in cartesian coordinates

 ion  position               nearest neighbor table
   1  0.167  0.083  0.500-  20 1.45  17 1.45  21 1.45
   2  0.167  0.333  0.500-  17 1.45  18 1.45  22 1.45
   3  0.167  0.583  0.500-  18 1.45  19 1.45  23 1.45
   4  0.167  0.833  0.500-  19 1.45  20 1.45  24 1.45
   5  0.417  0.083  0.500-  24 1.45  25 1.45  21 1.45
   6  0.417  0.333  0.500-  21 1.45  26 1.45  22 1.45
   7  0.417  0.583  0.500-  23 1.45  22 1.45  27 1.45
   8  0.417  0.833  0.500-  24 1.45  28 1.45  23 1.45
   9  0.667  0.083  0.500-  29 1.45  25 1.45  28 1.45
  10  0.667  0.333  0.500-  25 1.45  30 1.45  26 1.45
  11  0.667  0.583  0.500-  27 1.45  31 1.45  26 1.45
  12  0.667  0.833  0.500-  32 1.45  28 1.45  27 1.45
  13  0.917  0.083  0.500-  29 1.45  17 1.45  32 1.45
  14  0.917  0.333  0.500-  29 1.45  30 1.45  18 1.45
  15  0.917  0.583  0.500-  30 1.45  19 1.45  31 1.45
  16  0.917  0.833  0.500-  20 1.45  31 1.45  32 1.45
  17  0.083  0.167  0.500-   2 1.45  13 1.45   1 1.45
  18  0.083  0.417  0.500-   3 1.45   2 1.45  14 1.45
  19  0.083  0.667  0.500-   3 1.45  15 1.45   4 1.45
  20  0.083  0.917  0.500-  16 1.45   1 1.45   4 1.45
  21  0.333  0.167  0.500-   6 1.45   1 1.45   5 1.45
  22  0.333  0.417  0.500-   7 1.45   6 1.45   2 1.45
  23  0.333  0.667  0.500-   7 1.45   8 1.45   3 1.45
  24  0.333  0.917  0.500-   8 1.45   5 1.45   4 1.45
  25  0.583  0.167  0.500-  10 1.45   5 1.45   9 1.45
  26  0.583  0.417  0.500-   6 1.45  11 1.45  10 1.45
  27  0.583  0.667  0.500-  11 1.45   7 1.45  12 1.45
  28  0.583  0.917  0.500-  12 1.45   8 1.45   9 1.45
  29  0.833  0.167  0.500-  14 1.45   9 1.45  13 1.45
  30  0.833  0.417  0.500-  15 1.45  10 1.45  14 1.45
  31  0.833  0.667  0.500-  11 1.45  16 1.45  15 1.45
  32  0.833  0.917  0.500-  12 1.45  13 1.45  16 1.45
  33  0.560  0.472  0.673-  36 1.33  38 1.34  37 1.34  34 1.55
  34  0.532  0.470  0.629-  40 1.33  39 1.33  33 1.55  35 1.75
  35  0.514  0.630  0.618-  42 1.21  41 1.21  34 1.75
  36  0.693  0.595  0.682-  33 1.33
  37  0.566  0.345  0.682-  33 1.34
  38  0.445  0.472  0.692-  33 1.34
  39  0.650  0.478  0.610-  34 1.33
  40  0.404  0.342  0.620-  34 1.33
  41  0.643  0.738  0.613-  35 1.21
  42  0.379  0.590  0.617-  35 1.21

IMPORTANT INFORMATION: All symmetrisations will be switched off!
NOSYMM: (Re-)initialisation of all symmetry stuff for point group C_1.

 KPOINTS: K-Point Grid

Automatic generation of k-mesh.
Space group operators:
 irot       det(A)        alpha          n_x          n_y          n_z        tau_x        tau_y        tau_z
    1     1.000000     0.000000     1.000000     0.000000     0.000000     0.000000     0.000000     0.000000

 Subroutine IBZKPT returns following result:

 Found     10 irreducible k-points:

 Following reciprocal coordinates:
            Coordinates               Weight
  0.000000  0.000000  0.000000      1.000000
  0.250000  0.000000  0.000000      2.000000
  0.500000  0.000000  0.000000      1.000000
  0.000000  0.250000  0.000000      2.000000
  0.250000  0.250000  0.000000      2.000000
  0.500000  0.250000  0.000000      2.000000
 -0.250000  0.250000  0.000000      2.000000
  0.000000  0.500000  0.000000      1.000000
  0.250000  0.500000  0.000000      2.000000
  0.500000  0.500000  0.000000      1.000000

 Following cartesian coordinates:
            Coordinates               Weight
  0.000000  0.000000  0.000000      1.000000
  0.024879 -0.014364  0.000000      2.000000
  0.049758 -0.028727  0.000000      1.000000
  0.024879  0.014364  0.000000      2.000000
  0.049758  0.000000  0.000000      2.000000
  0.074636 -0.014364  0.000000      2.000000
  0.000000  0.028727  0.000000      2.000000
  0.049758  0.028727  0.000000      1.000000
  0.074636  0.014364  0.000000      2.000000
  0.099515  0.000000  0.000000      1.000000

 Subroutine IBZKPT_HF returns following result:

 Found     16 k-points in 1st BZ
 the following     16 k-points will be used (e.g. in the exchange kernel)
 Following reciprocal coordinates:   # in IRBZ
  0.000000  0.000000  0.000000    0.06250000   1 t-inv F
  0.250000  0.000000  0.000000    0.06250000   2 t-inv F
  0.500000  0.000000  0.000000    0.06250000   3 t-inv F
  0.000000  0.250000  0.000000    0.06250000   4 t-inv F
  0.250000  0.250000  0.000000    0.06250000   5 t-inv F
  0.500000  0.250000  0.000000    0.06250000   6 t-inv F
 -0.250000  0.250000  0.000000    0.06250000   7 t-inv F
  0.000000  0.500000  0.000000    0.06250000   8 t-inv F
  0.250000  0.500000  0.000000    0.06250000   9 t-inv F
  0.500000  0.500000  0.000000    0.06250000  10 t-inv F
 -0.250000 -0.000000  0.000000    0.06250000   2 t-inv T
 -0.000000 -0.250000  0.000000    0.06250000   4 t-inv T
 -0.250000 -0.250000  0.000000    0.06250000   5 t-inv T
 -0.500000 -0.250000  0.000000    0.06250000   6 t-inv T
  0.250000 -0.250000  0.000000    0.06250000   7 t-inv T
 -0.250000 -0.500000  0.000000    0.06250000   9 t-inv T

 SYSTEM =  hBN
 POSCAR =  B N C F O

 Startparameter for this run:
   NWRITE =      2    write-flag & timer
   PREC   = normal    normal or accurate (medium, high low for compatibility)
   ISTART =      0    job   : 0-new  1-cont  2-samecut
   ICHARG =      2    charge: 1-file 2-atom 10-const
   ISPIN  =      2    spin polarized calculation?
   LNONCOLLINEAR =      F non collinear calculations
   LSORBIT =      F    spin-orbit coupling
   INIWAV =      1    electr: 0-lowe 1-rand  2-diag
   LASPH  =      T    aspherical Exc in radial PAW
   METAGGA=      F    non-selfconsistent MetaGGA calc.

 Electronic Relaxation 1
   ENCUT  =  550.0 eV  40.42 Ry    6.36 a.u.  19.22 19.22 67.15*2*pi/ulx,y,z
   ENINI  =  550.0     initial cutoff
   ENAUG  =  644.9 eV  augmentation charge cutoff
   NELM   =    100;   NELMIN=  2; NELMDL= -5     # of ELM steps
   EDIFF  = 0.1E-04   stopping-criterion for ELM
   LREAL  =      T    real-space projection
   NLSPLINE    = F    spline interpolate recip. space projectors
   LCOMPAT=      F    compatible to vasp.4.4
   GGA_COMPAT  = T    GGA compatible to vasp.4.4-vasp.4.6
   LMAXPAW     = -100 max onsite density
   LMAXMIX     =    2 max onsite mixed and CHGCAR
   VOSKOWN=      0    Vosko Wilk Nusair interpolation
   ROPT   =   -0.00050  -0.00050  -0.00050  -0.00050
   ROPT   =   -0.00050
 Ionic relaxation
   EDIFFG = -.5E-01   stopping-criterion for IOM
   NSW    =    541    number of steps for IOM
   NBLOCK =      1;   KBLOCK =    541    inner block; outer block
   IBRION =      5    ionic relax: 0-MD 1-quasi-New 2-CG
   NFREE  =      2    steps in history (QN), initial steepest desc. (CG)
   ISIF   =      2    stress and relaxation
   IWAVPR =     11    prediction:  0-non 1-charg 2-wave 3-comb
   ISYM   =      0    0-nonsym 1-usesym 2-fastsym
   LCORR  =      T    Harris-Foulkes like correction to forces

   POTIM  = 0.0200    time-step for ionic-motion
   TEIN   =    0.0    initial temperature
   TEBEG  =    0.0;   TEEND  =   0.0 temperature during run
   SMASS  =  -3.00    Nose mass-parameter (am)
   estimated Nose-frequenzy (Omega)   =  0.10E-29 period in steps =****** mass=  -0.231E-26a.u.
   SCALEE = 1.0000    scale energy and forces
   NPACO  =    256;   APACO  = 16.0  distance and # of slots for P.C.
   PSTRESS=    0.0 pullay stress

  Mass of Ions in am
   POMASS =  10.81 14.00 12.01 19.00 16.00
  Ionic Valenz
   ZVAL   =   3.00  5.00  4.00  7.00  6.00
  Atomic Wigner-Seitz radii
  virtual crystal weights
   VCA    =   1.00  1.00  1.00  1.00  1.00
   NELECT =     186.4000    total number of electrons
   NUPDOWN=      -1.0000    fix difference up-down

 DOS related values:
   EMIN   = -10.00;   EMAX   =  5.00  energy-range for DOS
   EFERMI =   0.00
   ISMEAR =     0;   SIGMA  =   0.05  broadening in eV -4-tet -1-fermi 0-gaus

 Electronic relaxation 2 (details)
   IALGO  =     68    algorithm
   LDIAG  =      T    sub-space diagonalisation (order eigenvalues)
   LSUBROT=      F    optimize rotation matrix (better conditioning)
   TURBO    =      0    0=normal 1=particle mesh
   IRESTART =      0    0=no restart 2=restart with 2 vectors
   NREBOOT  =      0    no. of reboots
[...]
      8.79301     -0.72519     17.55889         0.001017      0.004007     -0.000438
      1.25643      0.72535     17.55828         0.001159     -0.000807      0.001467
      2.51256      2.90093     17.55911        -0.004185      0.000634      0.001653
      3.76865      5.07661     17.55831        -0.001574      0.001198      0.001285
      5.02471      7.25228     17.55765         0.002855     -0.002415      0.000975
      2.51259     -1.45028     17.55816        -0.001470     -0.001077      0.000551
      3.76866      0.72533     17.56034         0.000522     -0.003294     -0.000049
      5.02474      2.90087     17.55954        -0.005371      0.004454      0.000166
      6.28090      5.07659     17.55790        -0.000667      0.001245      0.001287
      3.76866     -3.62596     17.55899        -0.001317      0.001529      0.000461
      5.02466     -1.45021     17.56131         0.003027      0.005422     -0.000112
      6.28055      0.72523     17.56300         0.001555      0.008474     -0.000146
      7.53678      2.90086     17.55971         0.001712      0.000879      0.000202
      5.02467     -5.80154     17.55871         0.000075      0.000568      0.001677
      6.28076     -3.62587     17.55954        -0.000765     -0.001205      0.000848
      7.53686     -1.45028     17.55962        -0.003674      0.002625      0.000040
      8.79286      0.72535     17.55922         0.000644     -0.001855      0.001129
      5.18418     -0.76794     23.62206         0.006399     -0.003144     -0.054142
      5.03438     -0.54209     22.09906         0.055559      0.103246      0.040300
      5.74775      1.00472     21.68419        -0.079178     -0.102598     -0.087245
      6.47257     -0.84890     23.95967         0.010688      0.010176     -0.000505
      4.57703     -1.91789     23.95081        -0.009460     -0.016777      0.022032
      4.60913      0.23149     24.29619        -0.007624      0.025318      0.000389
      5.66637     -1.49825     21.42323         0.012470     -0.037303     -0.012204
      3.74712     -0.53569     21.76699        -0.045733     -0.016968     -0.013464
      6.94054      0.82541     21.53901         0.078086      0.007039      0.039122
      4.86483      1.83617     21.64288        -0.011932      0.028937      0.057179
    total drift:                               -0.029044     -0.018945      0.049512

  FREE ENERGIE OF THE ION-ELECTRON SYSTEM (eV)
  free  energy   TOTEN  =      -382.78591161 eV

  energy  without entropy=     -382.77143673  energy(sigma->0) =     -382.77867417

 d Force =-0.2258791E-03[-0.229E-02, 0.184E-02]  d Energy =-0.1014425E-02 0.789E-03
 d Force =-0.1796809E+02[-0.178E+02,-0.182E+02]  d Ewald  =-0.1796786E+02-0.232E-03

 stress matrix after NEB project (eV)
    -13.01839      0.50390      0.31168
      0.50382    -12.26355      0.25344
      0.31042      0.25357      0.14372
  FORCES: max atom, RMS     0.156228    0.035086
  FORCE total and by dimension    0.227386    0.103246
  Stress total and by dimension   17.908760   13.018394
 Finite differences progress:
  Degree of freedom:  12/ 12
  Displacement:        2/  2
  Total:              24/ 24

 SECOND DERIVATIVES (NOT SYMMETRIZED)
              34X         34Y         34Z         35X         35Y         35Z         41X         41Y         41Z         42X         42Y         42Z
 34X   -43.723876   11.185132   -1.810061   -6.024040   -5.547630    2.430705    7.348109    2.196819   -1.845186    1.174592    1.230917   -0.444841
 34Y    11.367056  -24.263245   -5.714424   -5.155213  -14.617231    3.452126    6.116695    3.764527   -1.651956   -2.961214   10.027747   -1.576380
 34Z    -2.012917   -5.682161  -44.602985    0.660536    0.677985    5.310944   -1.161165   -0.288896   -1.018551    0.273781   -0.877663   -1.266297
 35X    -6.074203   -5.219344    0.641285  -82.132504   39.322717    2.232475   52.740909   -6.400399   -5.998619   32.711430  -31.591302    2.103479
 35Y    -5.706015  -14.831973    0.609657   39.424386  -20.653236   -5.314563  -14.728591    2.294573    3.092033  -23.535326   23.733724    0.239830
 35Z     2.499218    3.510711    5.288101    2.097211   -5.156352  -16.861468   -4.261762    1.750100    6.522711    0.432077    1.471224    5.829938
 41X     7.460450    6.233549   -1.034733   52.611290  -14.841625   -4.283927  -67.894390   11.529347    7.729474    8.548036   -0.925052   -1.626028
 41Y     2.216510    3.783967   -0.286916   -6.293739    2.346897    1.729266   11.432017   -7.391158   -1.127080   -7.331184    2.207206    0.217275
 41Z    -1.795873   -1.531304   -1.029977   -6.012027    2.926591    6.575506    7.743065   -0.996096   -3.587215   -0.134983   -0.797493   -2.279599
 42X     1.149651   -2.974962    0.211708   32.730568  -23.587492    0.407129    8.495792   -7.334241   -0.206150  -42.510797   32.758040   -0.361596
 42Y     1.278712   10.016890   -0.811403  -31.573399   23.907857    1.465940   -0.898591    2.185822   -0.840840   32.909273  -34.515506    0.916190
 42Z    -0.464732   -1.614676   -1.301637    2.110464    0.258071    5.827119   -1.587273    0.186275   -2.250851   -0.206032    0.874651   -2.576590

 Eigenvectors and eigenvalues of the dynamical matrix

   1 f  =   54.839090 THz   344.564164 2PiTHz 1829.235085 cm-1   226.796327 meV
             X         Y         Z           dx          dy          dz
      1.256416 -0.725082 17.557887            0           0           0
      2.512276  1.450572 17.559081            0           0           0
      3.768301  3.626328 17.558986            0           0           0
      5.024765  5.801823 17.557841            0           0           0
      2.512580 -2.900773 17.558284            0           0           0
      3.768312 -0.725213 17.558761            0           0           0
      5.024491  1.450686 17.558947            0           0           0
      6.280788  3.626260 17.558960            0           0           0
      3.768586 -5.076361 17.558966            0           0           0
      5.024594 -2.900973 17.559394            0           0           0
      6.280934 -0.724962 17.559489            0           0           0
      7.537026  1.450592 17.559902            0           0           0
      5.024694 -7.251936 17.558693            0           0           0
      6.280700 -5.076384 17.559063            0           0           0
      7.536838 -2.900861 17.559060            0           0           0
      8.793005 -0.725189 17.558886            0           0           0
      1.256432  0.725353 17.558276            0           0           0
      2.512558  2.900927 17.559110            0           0           0
      3.768654  5.076613 17.558313            0           0           0
      5.024712  7.252281 17.557649            0           0           0
      2.512589 -1.450277 17.558161            0           0           0
      3.768665  0.725333 17.560336            0           0           0
      5.024742  2.900865 17.559539            0           0           0
      6.280898  5.076592 17.557897            0           0           0
      3.768664 -3.625959 17.558993            0           0           0
      5.024660 -1.450213 17.561314            0           0           0
      6.280555  0.725230 17.562995            0           0           0
      7.536775  2.900861 17.559710            0           0           0
      5.024667 -5.801544 17.558709            0           0           0
      6.280761 -3.625870 17.559545            0           0           0
      7.536857 -1.450283 17.559623            0           0           0
      8.792859  0.725345 17.559216            0           0           0
      5.184184 -0.767936 23.622064            0           0           0
      5.034375 -0.542089 22.099061    -0.050633    0.025627    0.001258
      5.747748  1.004722 21.684193    -0.739833    0.363863    0.042201
      6.472574 -0.848904 23.959668            0           0           0
      4.577031 -1.917886 23.950807            0           0           0
      4.609127  0.231487 24.296190            0           0           0
      5.666370 -1.498255 21.423233            0           0           0
      3.747120 -0.535693 21.766992            0           0           0
      6.940539  0.825411 21.539008     0.386839   -0.043592   -0.051557
      4.864826  1.836172 21.662881     0.282980   -0.284305    0.011742

[...]

  11 f  =    1.015557 THz     6.380934 2PiTHz   33.875338 cm-1     4.200008 meV
             X         Y         Z           dx          dy          dz
      1.256416 -0.725082 17.557887            0           0           0
      2.512276  1.450572 17.559081            0           0           0
      3.768301  3.626328 17.558986            0           0           0
      5.024765  5.801823 17.557841            0           0           0
      2.512580 -2.900773 17.558284            0           0           0
      3.768312 -0.725213 17.558761            0           0           0
      5.024491  1.450686 17.558947            0           0           0
      6.280788  3.626260 17.558960            0           0           0
      3.768586 -5.076361 17.558966            0           0           0
      5.024594 -2.900973 17.559394            0           0           0
      6.280934 -0.724962 17.559489            0           0           0
      7.537026  1.450592 17.559902            0           0           0
      5.024694 -7.251936 17.558693            0           0           0
      6.280700 -5.076384 17.559063            0           0           0
      7.536838 -2.900861 17.559060            0           0           0
      8.793005 -0.725189 17.558886            0           0           0
      1.256432  0.725353 17.558276            0           0           0
      2.512558  2.900927 17.559110            0           0           0
      3.768654  5.076613 17.558313            0           0           0
      5.024712  7.252281 17.557649            0           0           0
      2.512589 -1.450277 17.558161            0           0           0
      3.768665  0.725333 17.560336            0           0           0
      5.024742  2.900865 17.559539            0           0           0
      6.280898  5.076592 17.557897            0           0           0
      3.768664 -3.625959 17.558993            0           0           0
      5.024660 -1.450213 17.561314            0           0           0
      6.280555  0.725230 17.562995            0           0           0
      7.536775  2.900861 17.559710            0           0           0
      5.024667 -5.801544 17.558709            0           0           0
      6.280761 -3.625870 17.559545            0           0           0
      7.536857 -1.450283 17.559623            0           0           0
      8.792859  0.725345 17.559216            0           0           0
      5.184184 -0.767936 23.622064            0           0           0
      5.034375 -0.542089 22.099061    -0.002349   -0.001563   -0.000176
      5.747748  1.004722 21.684193     0.062481   -0.032150   -0.061413
      6.472574 -0.848904 23.959668            0           0           0
      4.577031 -1.917886 23.950807            0           0           0
      4.609127  0.231487 24.296190            0           0           0
      5.666370 -1.498255 21.423233            0           0           0
      3.747120 -0.535693 21.766992            0           0           0
      6.940539  0.825411 21.539008     0.156023   -0.018763    0.588741
      4.864826  1.836172 21.662881     0.032431   -0.104099   -0.779797

  12 f/i=   15.119394 THz    94.997957 2PiTHz  504.328698 cm-1    62.528812 meV
             X         Y         Z           dx          dy          dz
      1.256416 -0.725082 17.557887            0           0           0
      2.512276  1.450572 17.559081            0           0           0
      3.768301  3.626328 17.558986            0           0           0
      5.024765  5.801823 17.557841            0           0           0
      2.512580 -2.900773 17.558284            0           0           0
      3.768312 -0.725213 17.558761            0           0           0
      5.024491  1.450686 17.558947            0           0           0
      6.280788  3.626260 17.558960            0           0           0
      3.768586 -5.076361 17.558966            0           0           0
      5.024594 -2.900973 17.559394            0           0           0
      6.280934 -0.724962 17.559489            0           0           0
      7.537026  1.450592 17.559902            0           0           0
      5.024694 -7.251936 17.558693            0           0           0
      6.280700 -5.076384 17.559063            0           0           0
      7.536838 -2.900861 17.559060            0           0           0
      8.793005 -0.725189 17.558886            0           0           0
      1.256432  0.725353 17.558276            0           0           0
      2.512558  2.900927 17.559110            0           0           0
      3.768654  5.076613 17.558313            0           0           0
      5.024712  7.252281 17.557649            0           0           0
      2.512589 -1.450277 17.558161            0           0           0
      3.768665  0.725333 17.560336            0           0           0
      5.024742  2.900865 17.559539            0           0           0
      6.280898  5.076592 17.557897            0           0           0
      3.768664 -3.625959 17.558993            0           0           0
      5.024660 -1.450213 17.561314            0           0           0
      6.280555  0.725230 17.562995            0           0           0
      7.536775  2.900861 17.559710            0           0           0
      5.024667 -5.801544 17.558709            0           0           0
      6.280761 -3.625870 17.559545            0           0           0
      7.536857 -1.450283 17.559623            0           0           0
      8.792859  0.725345 17.559216            0           0           0
      5.184184 -0.767936 23.622064            0           0           0
      5.034375 -0.542089 22.099061    -0.224534   -0.466856    0.049941
      5.747748  1.004722 21.684193     0.346055    0.739600   -0.181807
      6.472574 -0.848904 23.959668            0           0           0
      4.577031 -1.917886 23.950807            0           0           0
      4.609127  0.231487 24.296190            0           0           0
      5.666370 -1.498255 21.423233            0           0           0
      3.747120 -0.535693 21.766992            0           0           0
      6.940539  0.825411 21.539008     0.022590   -0.116076    0.018240
      4.864826  1.836172 21.662881    -0.108553   -0.044166    0.035618

 Finite differences POTIM=  2.000000000000000E-002

 total charge

[...]

 magnetization (x)

# of ion       s       p       d       tot
    1        0.000   0.000   0.000   0.000
    2       -0.000   0.000   0.000   0.000
    3       -0.000  -0.000   0.000  -0.000
    4        0.000   0.000   0.000   0.000
    5        0.000  -0.000   0.000  -0.000
    6       -0.000  -0.000   0.000  -0.000
    7       -0.000   0.000   0.000  -0.000
    8       -0.000   0.000   0.000  -0.000
    9        0.000   0.000   0.000   0.000
   10       -0.000  -0.000   0.000  -0.000
   11       -0.000  -0.000   0.000  -0.000
   12        0.000   0.000   0.000   0.000
   13       -0.000  -0.000   0.000  -0.000
   14       -0.000  -0.000   0.000  -0.000
   15       -0.000  -0.000   0.000  -0.000
   16       -0.000  -0.000   0.000  -0.000
   17       -0.000  -0.000   0.000  -0.000
   18        0.000   0.000   0.000   0.000
   19       -0.000  -0.000   0.000  -0.000
   20        0.000   0.000   0.000   0.000
   21        0.000   0.000   0.000   0.000
   22        0.000   0.000   0.000   0.000
   23        0.000   0.000   0.000   0.000
   24       -0.000  -0.000   0.000  -0.000
   25       -0.000  -0.000   0.000  -0.000
   26       -0.000  -0.000   0.000  -0.000
   27        0.000   0.000   0.000   0.000
   28        0.000  -0.000   0.000  -0.000
   29       -0.000  -0.000   0.000  -0.000
   30        0.000   0.000   0.000   0.000
   31        0.000   0.000   0.000   0.000
   32        0.000   0.000   0.000   0.000
   33        0.005   0.013   0.000   0.017
   34        0.028   0.152   0.000   0.180
   35       -0.013  -0.021   0.000  -0.034
   36       -0.000   0.001   0.000   0.001
   37        0.000   0.015   0.000   0.016
   38       -0.000  -0.001   0.000  -0.001
   39        0.001   0.039   0.000   0.040
   40        0.001   0.037   0.000   0.038
   41        0.003   0.192   0.000   0.194
   42        0.002   0.182   0.000   0.184
tot          0.026   0.609   0.000   0.635