 vasp.5.4.4.18Apr17-6-g9f103f2a35 (build May 01 2020 14:57:12) complex

 executed on             LinuxIFC date 2021.07.25  05:43:42

 INCAR:
 POTCAR:    PAW_PBE B 06Sep2000
 POTCAR:    PAW_PBE H 15Jun2001
 POTCAR:    PAW_PBE N 08Apr2002
 POTCAR:    PAW_PBE O 08Apr2002

 POTCAR:    PAW_PBE B 06Sep2000
   VRHFIN =B: s2p1

   TITEL  = PAW_PBE B 06Sep2000
   POMASS =   10.811; ZVAL   =    3.000    mass and valenz
   ENMAX  =  318.614; ENMIN  =  238.960 eV

 POTCAR:    PAW_PBE H 15Jun2001
   VRHFIN =H: ultrasoft test

   TITEL  = PAW_PBE H 15Jun2001
   POMASS =    1.000; ZVAL   =    1.000    mass and valenz
   ENMAX  =  250.000; ENMIN  =  200.000 eV

 POTCAR:    PAW_PBE N 08Apr2002
   VRHFIN =N: s2p3

   TITEL  = PAW_PBE N 08Apr2002
   POMASS =   14.001; ZVAL   =    5.000    mass and valenz
   ENMAX  =  400.000; ENMIN  =  300.000 eV

 POTCAR:    PAW_PBE O 08Apr2002
   VRHFIN =O: s2p4

   TITEL  = PAW_PBE O 08Apr2002
   POMASS =   16.000; ZVAL   =    6.000    mass and valenz
   ENMAX  =  400.000; ENMIN  =  300.000 eV

 Optimization of the real space projectors (new method)

 maximal supplied QI-value         = 22.11
 optimisation between [QCUT,QGAM] = [ 11.94, 23.88] = [ 39.92,159.67] Ry
 Optimized for a Real-space Cutoff    1.18 Angstroem

   l    n(q)    QCUT    max X(q) W(low)/X(q) W(high)/X(q)  e(spline)
   0      8    11.939    53.033    0.11E-03    0.34E-03    0.60E-07
   0      8    11.939    34.740    0.11E-03    0.34E-03    0.59E-07
   1      8    11.939    30.949    0.22E-03    0.20E-03    0.17E-06
   1      8    11.939    19.518    0.20E-03    0.18E-03    0.16E-06
 Optimization of the real space projectors (new method)

[...]

   l    n(q)    QCUT    max X(q) W(low)/X(q) W(high)/X(q)  e(spline)
   0     10    11.813    79.467    0.48E-04    0.30E-04    0.67E-06
   0     10    11.813    66.151    0.47E-04    0.30E-04    0.67E-06
   1     10    11.813    20.169    0.11E-03    0.17E-03    0.11E-05
   1     10    11.813    14.454    0.11E-03    0.17E-03    0.11E-05
 Optimization of the real space projectors (new method)

 maximal supplied QI-value         = 24.76
 optimisation between [QCUT,QGAM] = [ 11.88, 24.01] = [ 39.54,161.47] Ry
 Optimized for a Real-space Cutoff    1.18 Angstroem

   l    n(q)    QCUT    max X(q) W(low)/X(q) W(high)/X(q)  e(spline)
   0      8    11.883    20.381    0.86E-04    0.11E-03    0.31E-06
   0      8    11.883    15.268    0.94E-04    0.12E-03    0.33E-06
   1      8    11.883     5.964    0.19E-03    0.18E-04    0.33E-06
   1      8    11.883     5.382    0.17E-03    0.20E-04    0.29E-06
  PAW_PBE B 06Sep2000                   :
  PAW_PBE H 15Jun2001                   :
  PAW_PBE N 08Apr2002                   :
  PAW_PBE O 08Apr2002                   :

 POSCAR: B H N O
  positions in direct lattice
  velocities in cartesian coordinates

 METAGGA = SCAN     LMAXTAU =  6    LMIXTAU =  F

 ion  position               nearest neighbor table
   1  0.321  0.502  0.445-  30 1.45  23 1.45  29 1.45
   2  0.321  0.501  0.500-  31 1.45  30 1.45  24 1.45
   3  0.321  0.500  0.556-  31 1.45  32 1.45  25 1.45
   4  0.312  0.498  0.611-  39 1.36  37 1.38  32 1.45
   5  0.821  0.503  0.445-  34 1.45  26 1.45  33 1.45
   6  0.821  0.501  0.500-  35 1.45  34 1.45  27 1.45
   7  0.821  0.502  0.556-  35 1.45  36 1.45  28 1.45
   8  0.812  0.506  0.611-  43 1.36  38 1.38  36 1.45
   9  0.071  0.503  0.417-  40 1.37  23 1.44  33 1.45
  10  0.071  0.502  0.473-  23 1.44  24 1.44  34 1.45
  11  0.071  0.501  0.528-  25 1.44  24 1.44  35 1.45
  12  0.071  0.501  0.583-  37 1.37  25 1.44  36 1.45
  13  0.571  0.504  0.417-  41 1.37  26 1.44  29 1.45
  14  0.571  0.502  0.473-  26 1.44  27 1.44  30 1.45
  15  0.571  0.501  0.528-  28 1.44  27 1.44  31 1.45
  16  0.571  0.502  0.583-  38 1.37  28 1.44  32 1.45
  17  0.312  0.498  0.390-  42 1.36  40 1.38  29 1.45
  18  0.812  0.508  0.390-  44 1.36  41 1.38  33 1.45
  19  0.296  0.492  0.654-  39 0.97
  20  0.296  0.489  0.347-  42 0.97
  21  0.796  0.512  0.654-  43 0.97
  22  0.796  0.515  0.347-  44 0.97
  23  0.154  0.502  0.445-  10 1.44   9 1.44   1 1.45
  24  0.154  0.501  0.500-  11 1.44  10 1.44   2 1.45
  25  0.154  0.501  0.556-  11 1.44  12 1.44   3 1.45
  26  0.654  0.503  0.445-  14 1.44  13 1.44   5 1.45
  27  0.654  0.501  0.500-  15 1.44  14 1.44   6 1.45
  28  0.654  0.501  0.556-  15 1.44  16 1.44   7 1.45
  29  0.404  0.502  0.417-  17 1.45  13 1.45   1 1.45
  30  0.404  0.502  0.473-   1 1.45   2 1.45  14 1.45
  31  0.404  0.501  0.528-   3 1.45   2 1.45  15 1.45
  32  0.404  0.500  0.584-  16 1.45   4 1.45   3 1.45
  33  0.904  0.505  0.417-  18 1.45   9 1.45   5 1.45
  34  0.904  0.502  0.473-   5 1.45   6 1.45  10 1.45
  35  0.904  0.501  0.528-   7 1.45   6 1.45  11 1.45
  36  0.904  0.503  0.584-  12 1.45   8 1.45   7 1.45
  37  0.154  0.499  0.609-  12 1.37   4 1.38
  38  0.654  0.505  0.609-  16 1.37   8 1.38
  39  0.375  0.494  0.639-  19 0.97   4 1.36
  40  0.154  0.500  0.392-   9 1.37  17 1.38
  41  0.654  0.507  0.392-  13 1.37  18 1.38
  42  0.375  0.491  0.362-  20 0.97  17 1.36
  43  0.875  0.511  0.639-  21 0.97   8 1.36
  44  0.875  0.513  0.362-  22 0.97  18 1.36

  LATTYP: Found a simple orthorhombic cell.
 ALAT       =     8.7025000000
 B/A-ratio  =     1.7236426314
 C/A-ratio  =     5.1709278943

  Lattice vectors:

 A1 = (   0.0000000000,  -8.7025000000,   0.0000000000)
 A2 = (  15.0000000000,   0.0000000000,   0.0000000000)
 A3 = (   0.0000000000,   0.0000000000,  45.0000000000)

Analysis of symmetry for initial positions (statically):
 Subroutine PRICEL returns:
 Original cell was already a primitive cell.

 Routine SETGRP: Setting up the symmetry group for a
 simple orthorhombic supercell.

 Subroutine GETGRP returns: Found  1 space group operations
 (whereof  1 operations were pure point group operations)
 out of a pool of  8 trial point group operations.

The static configuration has the point symmetry C_1 .

Analysis of symmetry for dynamics (positions and initial velocities):
 Subroutine PRICEL returns:
 Original cell was already a primitive cell.

[...]

The dynamic configuration has the point symmetry C_1 .

Analysis of constrained symmetry for selective dynamics:
 Subroutine PRICEL returns:
 Original cell was already a primitive cell.

[...]

The constrained configuration has the point symmetry C_1 .

Analysis of structural, dynamic, and magnetic symmetry:
 Subroutine PRICEL returns:
 Original cell was already a primitive cell.

 Routine SETGRP: Setting up the symmetry group for a
 simple orthorhombic supercell.

 Subroutine GETGRP returns: Found  1 space group operations
 (whereof  1 operations were pure point group operations)
 out of a pool of  8 trial point group operations.

The magnetic configuration has the point symmetry C_1 .

 Subroutine INISYM returns: Found  1 space group operations
 (whereof  1 operations are pure point group operations),
 and found     1 'primitive' translations

 KPOINTS: K-Point Grid

Automatic generation of k-mesh.
Space group operators:
 irot       det(A)        alpha          n_x          n_y          n_z        tau_x        tau_y        tau_z
    1     1.000000     0.000001     1.000000     0.000000     0.000000     0.000000     0.000000     0.000000

 Subroutine IBZKPT returns following result:

 Found      8 irreducible k-points:

 Following reciprocal coordinates:
            Coordinates               Weight
  0.125000  0.125000  0.000000      2.000000
  0.375000  0.125000  0.000000      2.000000
 -0.375000  0.125000  0.000000      2.000000
 -0.125000  0.125000  0.000000      2.000000
  0.125000  0.375000  0.000000      2.000000
  0.375000  0.375000  0.000000      2.000000
 -0.375000  0.375000  0.000000      2.000000
 -0.125000  0.375000  0.000000      2.000000

 Following cartesian coordinates:
            Coordinates               Weight
  0.008333 -0.014364  0.000000      2.000000
  0.008333 -0.043091  0.000000      2.000000
  0.008333  0.043091  0.000000      2.000000
  0.008333  0.014364  0.000000      2.000000
  0.025000 -0.014364  0.000000      2.000000
  0.025000 -0.043091  0.000000      2.000000
  0.025000  0.043091  0.000000      2.000000
  0.025000  0.014364  0.000000      2.000000

 SYSTEM =  SiC
 POSCAR =  B H N O

 Startparameter for this run:
   NWRITE =      2    write-flag & timer
   PREC   = accura    normal or accurate (medium, high low for compatibility)
   ISTART =      1    job   : 0-new  1-cont  2-samecut
   ICHARG =      0    charge: 1-file 2-atom 10-const
   ISPIN  =      2    spin polarized calculation?
   LNONCOLLINEAR =      F non collinear calculations
   LSORBIT =      F    spin-orbit coupling
   INIWAV =      1    electr: 0-lowe 1-rand  2-diag
   LASPH  =      T    aspherical Exc in radial PAW
   METAGGA=      F    non-selfconsistent MetaGGA calc.

 Electronic Relaxation 1
   ENCUT  =  550.0 eV  40.42 Ry    6.36 a.u.  16.64 28.68 86.05*2*pi/ulx,y,z
   ENINI  =  550.0     initial cutoff
   ENAUG  =  627.1 eV  augmentation charge cutoff
   NELM   =    100;   NELMIN=  2; NELMDL=  0     # of ELM steps
   EDIFF  = 0.1E-04   stopping-criterion for ELM
   LREAL  =      T    real-space projection
   NLSPLINE    = F    spline interpolate recip. space projectors
   LCOMPAT=      F    compatible to vasp.4.4
   GGA_COMPAT  = T    GGA compatible to vasp.4.4-vasp.4.6
   LMAXPAW     = -100 max onsite density
   LMAXMIX     =    2 max onsite mixed and CHGCAR
   VOSKOWN=      0    Vosko Wilk Nusair interpolation
   ROPT   =   -0.00025  -0.00025  -0.00025  -0.00025
 Ionic relaxation
   EDIFFG = -.2E-01   stopping-criterion for IOM
   NSW    =    500    number of steps for IOM
   NBLOCK =      1;   KBLOCK =    500    inner block; outer block
   IBRION =      2    ionic relax: 0-MD 1-quasi-New 2-CG
   NFREE  =      1    steps in history (QN), initial steepest desc. (CG)
   ISIF   =      2    stress and relaxation
   IWAVPR =     11    prediction:  0-non 1-charg 2-wave 3-comb
   ISYM   =      2    0-nonsym 1-usesym 2-fastsym
   LCORR  =      T    Harris-Foulkes like correction to forces

   POTIM  = 0.5000    time-step for ionic-motion
   TEIN   =    0.0    initial temperature
   TEBEG  =    0.0;   TEEND  =   0.0 temperature during run
   SMASS  =  -3.00    Nose mass-parameter (am)
   estimated Nose-frequenzy (Omega)   =  0.10E-29 period in steps =****** mass=  -0.173E-26a.u.
   SCALEE = 1.0000    scale energy and forces
   NPACO  =    256;   APACO  = 16.0  distance and # of slots for P.C.
   PSTRESS=    0.0 pullay stress

  Mass of Ions in am
   POMASS =  10.81  1.00 14.00 16.00
  Ionic Valenz
   ZVAL   =   3.00  1.00  5.00  6.00
  Atomic Wigner-Seitz radii
  virtual crystal weights
   VCA    =   1.00  1.00  1.00  1.00
   NELECT =     176.0000    total number of electrons
   NUPDOWN=      -1.0000    fix difference up-down

 DOS related values:
   EMIN   =  10.00;   EMAX   =-10.00  energy-range for DOS
   EFERMI =   0.00
   ISMEAR =     0;   SIGMA  =   0.05  broadening in eV -4-tet -1-fermi 0-gaus

 Electronic relaxation 2 (details)
   IALGO  =     68    algorithm
   LDIAG  =      T    sub-space diagonalisation (order eigenvalues)
   LSUBROT=      F    optimize rotation matrix (better conditioning)
[...]
     12     -23.1409      1.00000
     13     -23.1284      1.00000
     14     -22.7846      1.00000
     15     -22.6106      1.00000
     16     -22.4698      1.00000
     17     -21.9274      1.00000
     18     -21.9256      1.00000
     19     -21.8615      1.00000
     20     -21.6261      1.00000
     21     -21.3121      1.00000
     22     -21.2884      1.00000
     23     -15.3087      1.00000
     24     -15.2469      1.00000
     25     -15.1875      1.00000
     26     -15.0990      1.00000
     27     -14.7427      1.00000
     28     -14.5982      1.00000
     29     -14.4986      1.00000
     30     -14.3454      1.00000
     31     -14.2702      1.00000
     32     -14.0128      1.00000
     33     -13.8801      1.00000
     34     -13.6128      1.00000
     35     -13.5358      1.00000
     36     -13.4459      1.00000
     37     -12.8338      1.00000
     38     -12.7771      1.00000
     39     -12.7680      1.00000
     40     -12.4376      1.00000
     41     -12.2038      1.00000
     42     -12.1459      1.00000
     43     -11.9387      1.00000
     44     -11.4395      1.00000
     45     -11.4322      1.00000
     46     -11.1892      1.00000
     47     -11.1840      1.00000
     48     -11.0807      1.00000
     49     -10.8021      1.00000
     50     -10.7611      1.00000
     51     -10.7549      1.00000
     52     -10.5060      1.00000
     53     -10.5013      1.00000
     54     -10.4885      1.00000
     55     -10.4280      1.00000
     56     -10.3404      1.00000
     57     -10.1889      1.00000
     58     -10.0858      1.00000
     59      -9.9198      1.00000
     60      -9.7676      1.00000
[...]
    122       1.3657      0.00000
    123       1.3945      0.00000
    124       1.4321      0.00000
    125       1.5499      0.00000
    126       1.5568      0.00000
    127       1.5619      0.00000
    128       1.6225      0.00000
    129       1.6336      0.00000
    130       1.6366      0.00000
    131       1.6510      0.00000
    132       1.6777      0.00000
    133       1.7003      0.00000
    134       1.7296      0.00000
    135       1.7374      0.00000
    136       1.7832      0.00000

[...]

 soft charge-density along one line, spin component           2
         0         1         2         3         4         5         6         7         8         9
 total charge-density along one line

------------------------ aborting loop because EDIFF is reached ----------------------------------------

[...]

  FORCE on cell =-STRESS in cart. coord.  units (eV):
  Direction    XX          YY          ZZ          XY          YZ          ZX
  Alpha Z    27.24937    27.24937    27.24937
  Ewald   17231.89370 58974.77436-23006.11880     1.01106     0.23124   -38.85410
  Hartree 23350.39824 59256.16861-22124.20064     0.54566     0.22731   -34.88376
  E(xc)    -761.15559  -756.37748  -756.65947     0.00454    -0.00204    -0.01214
  Local  -42845.22671************ 43229.02902    -1.57772    -0.44976    73.79705
  n-local  -419.55221  -426.72984  -426.25760    -0.01181     0.01739    -0.00299
  augment    80.91728    72.71099    71.55250     0.00665    -0.00169    -0.02073
  Kinetic  3335.13760  2993.74495  2986.20206     0.01106    -0.05499     0.00733
  Fock        0.00000     0.00000     0.00000     0.00000     0.00000     0.00000
  Total      -0.33833   -12.36090     0.79643    -0.01056    -0.03253     0.03066
  in kB      -0.09228    -3.37142     0.21722    -0.00288    -0.00887     0.00836

 VOLUME and BASIS-vectors are now :
  energy-cutoff  :      550.00
  volume of cell :     5874.19
      direct lattice vectors                 reciprocal lattice vectors
     0.000000000 -8.702500000  0.000000000     0.000000000 -0.114909509  0.000000000
    15.000000000  0.000000000  0.000000000     0.066666667  0.000000000  0.000000000
     0.000000000  0.000000000 45.000000000     0.000000000  0.000000000  0.022222222

  length of vectors
     8.702500000 15.000000000 45.000000000     0.114909509  0.066666667  0.022222222

 FORCES acting on ions
    electron-ion (+dipol)            ewald-force                    non-local-force                 convergence-correction
   -.124E+00 0.139E+01 0.110E+03   0.128E+00 -.151E+01 -.110E+03   0.129E-02 0.788E-01 -.112E+00   0.673E-03 -.869E-03 0.752E-04
   0.924E+00 -.481E+00 -.148E-01   -.921E+00 0.446E+00 0.118E-01   -.843E-02 0.271E-01 0.110E-02   0.172E-02 -.115E-02 0.284E-03
   0.145E+01 0.142E+01 -.110E+03   -.145E+01 -.154E+01 0.110E+03   -.460E-02 0.788E-01 0.115E+00   0.170E-02 -.129E-03 0.221E-03
   0.351E+01 0.169E+02 -.237E+03   -.349E+01 -.183E+02 0.236E+03   -.396E-02 0.115E+01 0.919E+00   0.421E-03 0.254E-03 0.222E-02
   -.150E+01 0.145E+01 0.110E+03   0.150E+01 -.157E+01 -.110E+03   0.628E-03 0.801E-01 -.110E+00   0.933E-03 -.351E-03 0.180E-03
   0.175E+01 -.455E+00 0.143E-01   -.174E+01 0.426E+00 -.165E-01   -.148E-01 0.289E-01 0.159E-02   0.120E-02 -.200E-03 0.254E-03
   0.624E+00 0.144E+01 -.110E+03   -.628E+00 -.155E+01 0.110E+03   -.723E-02 0.786E-01 0.116E+00   0.151E-02 0.866E-03 0.140E-03
   -.459E+01 0.169E+02 -.237E+03   0.456E+01 -.183E+02 0.236E+03   0.126E-01 0.115E+01 0.917E+00   0.277E-03 0.726E-03 0.218E-02
   -.106E+01 -.215E+02 0.164E+03   0.114E+01 0.223E+02 -.163E+03   -.453E-01 -.657E+00 -.152E+01   0.670E-03 0.273E-03 -.246E-03
   -.173E+00 -.208E+01 0.533E+02   0.180E+00 0.199E+01 -.534E+02   -.818E-02 0.788E-01 -.298E-01   0.168E-02 0.183E-04 -.965E-03
   0.157E+01 -.206E+01 -.533E+02   -.155E+01 0.196E+01 0.533E+02   -.212E-01 0.755E-01 0.265E-01   0.126E-02 -.271E-03 0.100E-02
   -.417E+00 -.215E+02 -.164E+03   0.472E+00 0.223E+02 0.163E+03   -.392E-01 -.661E+00 0.152E+01   0.944E-03 -.554E-03 0.112E-02
   -.123E+01 -.215E+02 0.164E+03   0.112E+01 0.223E+02 -.163E+03   0.791E-01 -.657E+00 -.152E+01   0.934E-03 0.427E-04 0.969E-04
   0.182E+00 -.211E+01 0.533E+02   -.202E+00 0.202E+01 -.534E+02   0.590E-02 0.827E-01 -.288E-01   0.143E-02 0.219E-03 -.698E-03
   0.233E+01 -.206E+01 -.533E+02   -.233E+01 0.196E+01 0.533E+02   -.104E-01 0.759E-01 0.288E-01   0.161E-02 0.865E-04 0.102E-02
   0.915E+00 -.215E+02 -.164E+03   -.981E+00 0.223E+02 0.163E+03   0.432E-01 -.660E+00 0.152E+01   0.125E-02 -.819E-04 0.118E-02
   0.424E+01 0.167E+02 0.237E+03   -.421E+01 -.182E+02 -.236E+03   0.993E-03 0.115E+01 -.920E+00   0.227E-03 0.962E-03 -.227E-02
   -.559E+01 0.167E+02 0.237E+03   0.555E+01 -.182E+02 -.236E+03   0.292E-01 0.115E+01 -.914E+00   0.541E-03 0.702E-03 -.223E-02
   0.548E+01 -.524E+02 -.176E+03   -.565E+01 0.575E+02 0.182E+03   0.227E+00 -.590E+01 -.657E+01   -.192E-03 0.169E-03 0.710E-03
   0.865E+01 -.523E+02 0.176E+03   -.893E+01 0.574E+02 -.182E+03   0.374E+00 -.590E+01 0.657E+01   -.856E-04 0.421E-03 -.804E-03
   -.661E+01 -.524E+02 -.176E+03   0.682E+01 0.575E+02 0.182E+03   -.273E+00 -.591E+01 -.657E+01   -.322E-03 0.354E-03 0.863E-03
   -.737E+01 -.523E+02 0.176E+03   0.761E+01 0.574E+02 -.182E+03   -.300E+00 -.590E+01 0.658E+01   0.207E-03 0.458E-03 -.729E-03
   -.116E+01 0.449E+00 0.177E+03   0.123E+01 -.716E+00 -.177E+03   -.443E-01 0.302E+00 -.286E+00   0.409E-02 0.243E-02 0.702E-03
   0.227E+01 0.137E+01 -.322E-01   -.235E+01 -.163E+01 0.398E-01   0.732E-01 0.278E+00 0.717E-03   0.468E-02 -.365E-02 -.123E-02
   0.293E+01 0.472E+00 -.177E+03   -.304E+01 -.741E+00 0.177E+03   0.115E+00 0.309E+00 0.295E+00   0.171E-02 0.304E-03 -.996E-03
   -.475E+01 0.513E+00 0.177E+03   0.496E+01 -.788E+00 -.176E+03   -.243E+00 0.311E+00 -.293E+00   0.591E-02 0.363E-02 0.625E-03
   0.431E+01 0.139E+01 -.273E-01   -.448E+01 -.166E+01 0.340E-01   0.153E+00 0.283E+00 -.173E-02   0.220E-02 -.151E-02 -.628E-03
   0.281E+01 0.512E+00 -.177E+03   -.291E+01 -.781E+00 0.177E+03   0.670E-01 0.304E+00 0.297E+00   0.394E-02 0.229E-02 -.142E-02
   0.140E+01 0.111E+02 0.297E+03   -.138E+01 -.120E+02 -.298E+03   -.115E-01 0.729E+00 0.266E+00   -.258E-02 -.328E-02 0.238E-02
   -.219E+00 0.595E+00 0.898E+02   0.262E+00 -.713E+00 -.899E+02   -.522E-01 0.124E+00 -.975E-01   0.244E-02 -.461E-03 0.267E-02
   0.299E+01 0.557E+00 -.900E+02   -.305E+01 -.667E+00 0.900E+02   0.409E-01 0.115E+00 0.959E-01   0.551E-02 -.699E-03 -.380E-02
   0.171E+01 0.110E+02 -.297E+03   -.164E+01 -.119E+02 0.298E+03   -.914E-01 0.713E+00 -.268E+00   0.479E-02 -.214E-02 0.265E-02
   -.211E+01 0.111E+02 0.297E+03   0.198E+01 -.120E+02 -.298E+03   0.167E+00 0.731E+00 0.274E+00   -.346E-02 -.333E-02 0.356E-05
   -.738E-01 0.562E+00 0.899E+02   0.728E-01 -.670E+00 -.899E+02   -.480E-02 0.113E+00 -.893E-01   0.401E-02 0.666E-03 0.156E-02
   0.471E+01 0.549E+00 -.900E+02   -.492E+01 -.657E+00 0.900E+02   0.198E+00 0.107E+00 0.958E-01   0.178E-02 0.153E-02 -.314E-02
   -.391E+01 0.111E+02 -.297E+03   0.402E+01 -.120E+02 0.298E+03   -.111E+00 0.704E+00 -.264E+00   0.533E-02 0.713E-03 0.304E-02
   0.781E+01 -.592E+02 -.586E+03   -.793E+01 0.772E+02 0.617E+03   0.230E+00 -.169E+02 -.299E+02   -.217E-02 -.541E-02 0.632E-03
   -.863E+01 -.591E+02 -.586E+03   0.890E+01 0.771E+02 0.617E+03   -.361E+00 -.169E+02 -.299E+02   -.109E-02 -.669E-03 -.645E-03
   0.236E+02 0.795E+02 -.718E+03   -.242E+02 -.125E+03 0.722E+03   0.613E+00 0.425E+02 -.537E+01   -.305E-02 0.487E-02 0.118E-01
   0.647E+01 -.592E+02 0.586E+03   -.639E+01 0.771E+02 -.617E+03   0.672E-01 -.169E+02 0.299E+02   0.685E-02 -.480E-02 -.748E-03
   -.175E+02 -.593E+02 0.586E+03   0.183E+02 0.773E+02 -.617E+03   -.875E+00 -.169E+02 0.299E+02   0.734E-02 -.282E-02 0.222E-02
   0.358E+02 0.796E+02 0.717E+03   -.367E+02 -.125E+03 -.721E+03   0.978E+00 0.425E+02 0.529E+01   -.170E-02 0.659E-02 -.109E-01
   -.287E+02 0.794E+02 -.717E+03   0.295E+02 -.125E+03 0.722E+03   -.791E+00 0.425E+02 -.536E+01   -.569E-02 0.463E-02 0.109E-01
   -.321E+02 0.796E+02 0.717E+03   0.328E+02 -.125E+03 -.721E+03   -.753E+00 0.425E+02 0.530E+01   0.323E-02 0.764E-02 -.948E-02
   0.473E+00 -.860E+02 0.947E-01   0.711E-14 0.000E+00 0.341E-12   -.600E+00 0.866E+02 -.253E-01   0.626E-01 0.848E-02 0.980E-02

 POSITION                                       TOTAL-FORCE (eV/Angst)
      7.52558     -2.78666     20.01748         0.001466     -0.003784     -0.003749
      7.51704     -2.78120     22.51738        -0.000340      0.010717     -0.002077
      7.50704     -2.78623     25.01744         0.000648     -0.000273      0.006389
      7.47149     -2.71705     27.48957         0.002608     -0.001298      0.000023
      7.55078     -7.13814     20.01707        -0.002510     -0.002035     -0.000051
      7.51853     -7.13272     22.51717         0.002863      0.018223     -0.001283
      7.52533     -7.13744     25.01741        -0.002239      0.005209      0.006706
      7.58892     -7.06838     27.48930        -0.000340      0.007151     -0.003073
      7.53615     -0.61247     18.78170         0.002410      0.011561      0.006768
      7.52796     -0.60637     21.27284        -0.004143     -0.001476      0.006348
      7.51285     -0.60590     23.76119         0.003219     -0.006470     -0.012726
      7.51904     -0.61135     26.25231        -0.002551      0.003630     -0.003989
      7.55546     -4.96341     18.78248        -0.003645      0.011220      0.004771
      7.52978     -4.95787     21.27289        -0.004335      0.002349      0.011271
      7.51159     -4.95720     23.76101         0.002511     -0.006584     -0.007473
      7.52551     -4.96274     26.25227        -0.000205      0.006202     -0.005945
      7.46869     -2.71817     17.54637         0.000113      0.003586     -0.002460
      7.61959     -7.06874     17.54634         0.002953      0.002032     -0.002809
      7.39053     -2.60713     29.42579         0.005000     -0.005532      0.001021
      7.33669     -2.61001     15.61246         0.009253     -0.005537     -0.004379
      7.68937     -6.95831     29.42498        -0.001922     -0.009515     -0.004354
      7.72730     -6.96107     15.61079         0.004034     -0.005478     -0.002513
      7.53112     -1.33408     20.02876        -0.007216     -0.007229      0.001710
      7.51659     -1.33329     22.51695        -0.004052      0.002949      0.004500
      7.50930     -1.33352     25.00532         0.003522     -0.003791      0.004614
      7.55263     -5.68554     20.02902        -0.014765     -0.006685      0.001833
      7.51483     -5.68477     22.51694         0.004266      0.001985      0.001876
      7.51815     -5.68469     25.00524        -0.003307     -0.008699      0.002221
      7.51774     -3.51326     18.75825         0.012278      0.003389     -0.004467
      7.52581     -3.50935     21.26806        -0.000949     -0.003428     -0.008317
      7.51005     -3.50895     23.76678        -0.003821     -0.004105      0.012920
      7.50377     -3.51234     26.27724        -0.007469      0.000824     -0.001060
      7.56450     -7.86449     18.75762         0.015830      0.005201     -0.003027
      7.53222     -7.86056     21.26771        -0.006685     -0.004064     -0.005973
      7.51226     -7.86015     23.76675         0.004867     -0.008979      0.015335
      7.54751     -7.86350     26.27711        -0.014016     -0.006388      0.000783
      7.49167     -1.33916     27.41397         0.005994      0.010244      0.003029
      7.56267     -5.69046     27.41350         0.008083      0.002455      0.007266
      7.41392     -3.27523     28.72784         0.003727     -0.002447      0.001514
      7.50330     -1.34022     17.62033        -0.010591      0.002200     -0.005856
      7.60395     -5.69046     17.62132        -0.004704     -0.004549     -0.009836
      7.37555     -3.27715     16.31067        -0.000325     -0.002496     -0.002142
      7.66098     -7.62621     28.72698         0.009431      0.000590      0.002322
      7.69572     -7.62784     16.30957        -0.004941     -0.000875     -0.005656
    total drift:                               -0.064689      0.612542      0.079179

  FREE ENERGIE OF THE ION-ELECTRON SYSTEM (eV)
  free  energy   TOTEN  =      -399.26268462 eV

  energy  without entropy=     -399.26268462  energy(sigma->0) =     -399.26268462

 d Force = 0.1122047E-03[ 0.858E-04, 0.139E-03]  d Energy = 0.1164708E-03-0.427E-05
 d Force = 0.3545474E-01[ 0.356E-01, 0.353E-01]  d Ewald  = 0.3545474E-01-0.418E-08

 Conjugate gradient step on ions:
 trial-energy change:   -0.000116  1 .order   -0.000112   -0.000139   -0.000086
  (g-gl).g = 0.473E-03      g.g   = 0.510E-03  gl.gl    = 0.111E-02
 g(Force)  = 0.510E-03   g(Stress)= 0.000E+00 ortho     =-0.124E-05
 gamma     =   0.42701
 trial     =   0.27205
 opt step  =   0.71503  (harmonic =   0.71503) maximal distance =0.00154435
 next E    =  -399.262750   (d E  =  -0.00018)

 reached required accuracy - stopping structural energy minimisation
 writing wavefunctions

 total charge

[...]

 magnetization (x)

# of ion       s       p       d       tot
    1       -0.000  -0.000   0.000  -0.000
    2        0.000  -0.000   0.000  -0.000
    3        0.000  -0.000   0.000  -0.000
    4        0.000   0.000   0.000   0.000
    5        0.000   0.000   0.000   0.000
    6        0.000  -0.000   0.000   0.000
    7        0.000  -0.000   0.000  -0.000
    8        0.000   0.000   0.000   0.000
    9       -0.000   0.000   0.000   0.000
   10       -0.000  -0.000   0.000  -0.000
   11       -0.000  -0.000   0.000  -0.000
   12        0.000  -0.000   0.000   0.000
   13        0.000   0.000   0.000   0.000
   14        0.000   0.000   0.000   0.000
   15        0.000   0.000   0.000   0.000
   16       -0.000  -0.000   0.000  -0.000
   17       -0.000  -0.000   0.000  -0.000
   18        0.000   0.000   0.000   0.000
   19       -0.000  -0.000   0.000  -0.000
   20       -0.000   0.000   0.000  -0.000
   21        0.000  -0.000   0.000  -0.000
   22       -0.000   0.000   0.000   0.000
   23        0.000  -0.000   0.000  -0.000
   24        0.000  -0.000   0.000   0.000
   25       -0.000  -0.000   0.000  -0.000
   26       -0.000  -0.000   0.000  -0.000
   27        0.000  -0.000   0.000  -0.000
   28       -0.000   0.000   0.000  -0.000
   29       -0.000  -0.000   0.000  -0.000
   30        0.000  -0.000   0.000  -0.000
   31       -0.000   0.000   0.000   0.000
   32        0.000  -0.000   0.000   0.000
   33        0.000  -0.000   0.000  -0.000
   34        0.000  -0.000   0.000  -0.000
   35       -0.000   0.000   0.000   0.000
   36       -0.000  -0.000   0.000  -0.000
   37       -0.000  -0.000   0.000  -0.000
   38       -0.000   0.000   0.000   0.000
   39        0.000   0.000   0.000   0.000
   40       -0.000  -0.000   0.000  -0.000
   41       -0.000   0.000   0.000  -0.000
   42       -0.000  -0.000   0.000  -0.000
   43       -0.000  -0.000   0.000  -0.000
   44        0.000  -0.000   0.000  -0.000
tot         -0.000  -0.000   0.000  -0.000