 vasp.5.4.4.18Apr17-6-g9f103f2a35 (build May 01 2020 14:57:12) complex

 executed on             LinuxIFC date 2021.01.11  12:01:41

 INCAR:
 POTCAR:    PAW_PBE B 06Sep2000
 POTCAR:    PAW_PBE N 08Apr2002

 POTCAR:    PAW_PBE B 06Sep2000
   VRHFIN =B: s2p1

   TITEL  = PAW_PBE B 06Sep2000
   POMASS =   10.811; ZVAL   =    3.000    mass and valenz
   ENMAX  =  318.614; ENMIN  =  238.960 eV

 POTCAR:    PAW_PBE N 08Apr2002
   VRHFIN =N: s2p3

   TITEL  = PAW_PBE N 08Apr2002
   POMASS =   14.001; ZVAL   =    5.000    mass and valenz
   ENMAX  =  400.000; ENMIN  =  300.000 eV

 Optimization of the real space projectors (new method)

 maximal supplied QI-value         = 22.11
 optimisation between [QCUT,QGAM] = [ 11.94, 23.88] = [ 39.92,159.67] Ry
 Optimized for a Real-space Cutoff    1.18 Angstroem

   l    n(q)    QCUT    max X(q) W(low)/X(q) W(high)/X(q)  e(spline)
   0      8    11.939    53.033    0.11E-03    0.34E-03    0.60E-07
   0      8    11.939    34.740    0.11E-03    0.34E-03    0.59E-07
   1      8    11.939    30.949    0.22E-03    0.20E-03    0.17E-06
   1      8    11.939    19.518    0.20E-03    0.18E-03    0.16E-06
 Optimization of the real space projectors (new method)

 maximal supplied QI-value         = 25.13
 optimisation between [QCUT,QGAM] = [ 11.81, 23.88] = [ 39.08,159.64] Ry
 Optimized for a Real-space Cutoff    1.41 Angstroem

   l    n(q)    QCUT    max X(q) W(low)/X(q) W(high)/X(q)  e(spline)
   0     10    11.813    79.467    0.48E-04    0.30E-04    0.67E-06
   0     10    11.813    66.151    0.47E-04    0.30E-04    0.67E-06
   1     10    11.813    20.169    0.11E-03    0.17E-03    0.11E-05
   1     10    11.813    14.454    0.11E-03    0.17E-03    0.11E-05
  PAW_PBE B 06Sep2000                   :
  PAW_PBE N 08Apr2002                   :

 POSCAR: B N
  positions in direct lattice
  velocities in cartesian coordinates

 METAGGA = SCAN     LMAXTAU =  6    LMIXTAU =  F

 ion  position               nearest neighbor table
   1  0.167  0.084  0.500-  16 1.45  20 1.45  19 1.45
   2  0.167  0.334  0.500-  21 1.41  17 1.45  16 1.46
   3  0.167  0.583  0.500-  22 1.41  17 1.45  18 1.46
   4  0.167  0.833  0.500-  23 1.45  18 1.45  19 1.45
   5  0.417  0.083  0.500-  23 1.45  20 1.45  24 1.45
   6  0.417  0.334  0.500-  21 1.41  31 1.45  20 1.46
   7  0.417  0.833  0.500-  22 1.41  26 1.45  23 1.46
   8  0.667  0.083  0.500-  26 1.44  27 1.45  24 1.45
   9  0.667  0.333  0.500-  31 1.44  24 1.45  28 1.45
  10  0.666  0.583  0.500-  25 1.41  31 1.45  29 1.46
  11  0.666  0.833  0.500-  25 1.41  26 1.45  30 1.46
  12  0.917  0.083  0.500-  16 1.45  30 1.45  27 1.45
  13  0.917  0.333  0.500-  17 1.44  27 1.45  28 1.45
  14  0.917  0.583  0.500-  18 1.45  29 1.45  28 1.45
  15  0.916  0.833  0.500-  30 1.45  29 1.45  19 1.45
  16  0.083  0.166  0.500-  12 1.45   1 1.45   2 1.46
  17  0.082  0.416  0.500-  13 1.44   3 1.45   2 1.45
  18  0.083  0.667  0.500-  14 1.45   4 1.45   3 1.46
  19  0.083  0.917  0.500-   1 1.45  15 1.45   4 1.45
  20  0.333  0.166  0.500-   5 1.45   1 1.45   6 1.46
  21  0.328  0.407  0.500-   6 1.41   2 1.41
  22  0.329  0.671  0.500-   3 1.41   7 1.41
  23  0.333  0.917  0.500-   5 1.45   4 1.45   7 1.46
  24  0.583  0.167  0.500-   9 1.45   8 1.45   5 1.45
  25  0.593  0.672  0.500-  10 1.41  11 1.41
  26  0.584  0.918  0.500-   8 1.44   7 1.45  11 1.45
  27  0.833  0.167  0.500-   8 1.45  13 1.45  12 1.45
  28  0.833  0.417  0.500-   9 1.45  13 1.45  14 1.45
  29  0.834  0.667  0.500-  14 1.45  15 1.45  10 1.46
  30  0.834  0.917  0.500-  12 1.45  15 1.45  11 1.46
  31  0.584  0.416  0.500-   9 1.44  10 1.45   6 1.45

  LATTYP: Found a hexagonal cell.
 ALAT       =    10.0487671536
 C/A-ratio  =     3.4944251219

  Lattice vectors:

 A1 = (   5.0243667045,  -8.7024973730,   0.0000000000)
 A2 = (   5.0243667045,   8.7024973730,   0.0000000000)
 A3 = (   0.0000000000,   0.0000000000,  35.1146643856)

Analysis of symmetry for initial positions (statically):
 Subroutine PRICEL returns:
 Original cell was already a primitive cell.

 Routine SETGRP: Setting up the symmetry group for a
 hexagonal supercell.

 Subroutine GETGRP returns: Found  4 space group operations
 (whereof  4 operations were pure point group operations)
 out of a pool of 24 trial point group operations.

The static configuration has the point symmetry C_2v.

Analysis of symmetry for dynamics (positions and initial velocities):
 Subroutine PRICEL returns:
 Original cell was already a primitive cell.

[...]

The dynamic configuration has the point symmetry C_2v.

Analysis of constrained symmetry for selective dynamics:
 Subroutine PRICEL returns:
 Original cell was already a primitive cell.

[...]

The constrained configuration has the point symmetry C_2v.

Analysis of structural, dynamic, and magnetic symmetry:
 Subroutine PRICEL returns:
 Original cell was already a primitive cell.

 Routine SETGRP: Setting up the symmetry group for a
 hexagonal supercell.

 Subroutine GETGRP returns: Found  4 space group operations
 (whereof  4 operations were pure point group operations)
 out of a pool of 24 trial point group operations.

The magnetic configuration has the point symmetry C_2v.

 Subroutine INISYM returns: Found  4 space group operations
 (whereof  4 operations are pure point group operations),
 and found     1 'primitive' translations

 KPOINTS: K-Point Grid

Automatic generation of k-mesh.
Space group operators:
 irot       det(A)        alpha          n_x          n_y          n_z        tau_x        tau_y        tau_z
    1     1.000000     0.000000     1.000000     0.000000     0.000000     0.000000     0.000000     0.000000
    2    -1.000000   180.000000     0.000000     0.000000     1.000000     0.000000     0.000000     0.000000
    3     1.000000   180.000000     0.000000     1.000000     0.000000     0.000000     0.000000     0.000000
    4    -1.000000   180.000000     1.000000     0.000000     0.000000     0.000000     0.000000     0.000000

 Subroutine IBZKPT returns following result:

 Found     14 irreducible k-points:

 Following reciprocal coordinates:
            Coordinates               Weight
  0.125000  0.125000  0.000000     16.000000
  0.250000 -0.125000  0.000000     32.000000
  0.375000  0.125000  0.000000     32.000000
  0.500000 -0.375000  0.000000     32.000000
  0.125000  0.500000  0.000000     32.000000
 -0.375000  0.125000  0.000000     32.000000
 -0.250000  0.375000  0.000000     32.000000
  0.125000  0.250000  0.000000     32.000000
 -0.125000  0.125000  0.000000     16.000000
  0.000000  0.125000  0.000000     32.000000
  0.375000  0.375000  0.000000     16.000000
 -0.250000 -0.375000  0.000000     32.000000
 -0.375000  0.375000  0.000000     16.000000
  0.000000  0.375000  0.000000     32.000000

 Following cartesian coordinates:
            Coordinates               Weight
  0.024879  0.000000  0.000000     16.000000
  0.012439 -0.021546  0.000000     32.000000
  0.049758 -0.014364  0.000000     32.000000
  0.012439 -0.050273  0.000000     32.000000
  0.062197  0.021546  0.000000     32.000000
 -0.024879  0.028727  0.000000     32.000000
  0.012439  0.035909  0.000000     32.000000
  0.037318  0.007182  0.000000     32.000000
  0.000000  0.014364  0.000000     16.000000
  0.012439  0.007182  0.000000     32.000000
  0.074636  0.000000  0.000000     16.000000
 -0.062197 -0.007182  0.000000     32.000000
  0.000000  0.043091  0.000000     16.000000
  0.037318  0.021546  0.000000     32.000000

 SYSTEM =  SiC
 POSCAR =  B N

 Startparameter for this run:
   NWRITE =      2    write-flag & timer
   PREC   = accura    normal or accurate (medium, high low for compatibility)
   ISTART =      1    job   : 0-new  1-cont  2-samecut
   ICHARG =      0    charge: 1-file 2-atom 10-const
   ISPIN  =      2    spin polarized calculation?
   LNONCOLLINEAR =      F non collinear calculations
   LSORBIT =      F    spin-orbit coupling
   INIWAV =      1    electr: 0-lowe 1-rand  2-diag
   LASPH  =      T    aspherical Exc in radial PAW
   METAGGA=      F    non-selfconsistent MetaGGA calc.

 Electronic Relaxation 1
   ENCUT  =  550.0 eV  40.42 Ry    6.36 a.u.  19.22 19.22 67.15*2*pi/ulx,y,z
   ENINI  =  550.0     initial cutoff
   ENAUG  =  627.1 eV  augmentation charge cutoff
   NELM   =    100;   NELMIN=  2; NELMDL=  0     # of ELM steps
   EDIFF  = 0.1E-04   stopping-criterion for ELM
   LREAL  =      T    real-space projection
   NLSPLINE    = F    spline interpolate recip. space projectors
   LCOMPAT=      F    compatible to vasp.4.4
   GGA_COMPAT  = T    GGA compatible to vasp.4.4-vasp.4.6
   LMAXPAW     = -100 max onsite density
   LMAXMIX     =    2 max onsite mixed and CHGCAR
   VOSKOWN=      0    Vosko Wilk Nusair interpolation
   ROPT   =   -0.00025  -0.00025
 Ionic relaxation
   EDIFFG = -.2E-01   stopping-criterion for IOM
   NSW    =    500    number of steps for IOM
   NBLOCK =      1;   KBLOCK =    500    inner block; outer block
   IBRION =      2    ionic relax: 0-MD 1-quasi-New 2-CG
   NFREE  =      1    steps in history (QN), initial steepest desc. (CG)
   ISIF   =      2    stress and relaxation
   IWAVPR =     11    prediction:  0-non 1-charg 2-wave 3-comb
   ISYM   =      2    0-nonsym 1-usesym 2-fastsym
   LCORR  =      T    Harris-Foulkes like correction to forces

   POTIM  = 0.5000    time-step for ionic-motion
   TEIN   =    0.0    initial temperature
   TEBEG  =    0.0;   TEEND  =   0.0 temperature during run
   SMASS  =  -3.00    Nose mass-parameter (am)
   estimated Nose-frequenzy (Omega)   =  0.10E-29 period in steps =****** mass=  -0.231E-26a.u.
   SCALEE = 1.0000    scale energy and forces
   NPACO  =    256;   APACO  = 16.0  distance and # of slots for P.C.
   PSTRESS=    0.0 pullay stress

  Mass of Ions in am
   POMASS =  10.81 14.00
  Ionic Valenz
   ZVAL   =   3.00  5.00
  Atomic Wigner-Seitz radii
  virtual crystal weights
   VCA    =   1.00  1.00
   NELECT =     125.0000    total number of electrons
   NUPDOWN=      -1.0000    fix difference up-down

 DOS related values:
   EMIN   =  10.00;   EMAX   =-10.00  energy-range for DOS
   EFERMI =   0.00
   ISMEAR =     0;   SIGMA  =   0.05  broadening in eV -4-tet -1-fermi 0-gaus

 Electronic relaxation 2 (details)
   IALGO  =     68    algorithm
   LDIAG  =      T    sub-space diagonalisation (order eigenvalues)
   LSUBROT=      F    optimize rotation matrix (better conditioning)
   TURBO    =      0    0=normal 1=particle mesh
   IRESTART =      0    0=no restart 2=restart with 2 vectors
   NREBOOT  =      0    no. of reboots
   NMIN     =      0    reboot dimension
   EREF     =   0.00    reference energy to select bands
   IMIX   =      4    mixing-type and parameters
     AMIX     =   0.40;   BMIX     =  1.00
     AMIX_MAG =   1.60;   BMIX_MAG =  1.00
     AMIN     =   0.10
     WC   =   100.;   INIMIX=   1;  MIXPRE=   1;  MAXMIX= -45

 Intra band minimization:
   WEIMIN = 0.0010     energy-eigenvalue tresh-hold
   EBREAK =  0.26E-07  absolut break condition
   DEPER  =   0.30     relativ break condition

   TIME   =   0.40     timestep for ELM

  volume/ion in A,a.u.               =      99.06       668.46
[...]

[...]

 d Force =-0.1404360E-03[-0.343E-03, 0.620E-04]  d Energy = 0.7915839E-04-0.220E-03
 d Force = 0.8822631E+00[ 0.880E+00, 0.885E+00]  d Ewald  = 0.8822635E+00-0.388E-06

[...]

 d Force = 0.1448742E-03[-0.609E-06, 0.290E-03]  d Energy =-0.3222536E-04 0.177E-03
 d Force =-0.7469003E+00[-0.749E+00,-0.745E+00]  d Ewald  =-0.7469006E+00 0.236E-06

[...]

 eigenvalue-minimisations  :  3634
 total energy-change (2. order) : 0.4026291E-05  (-0.1163577E-05)
 number of electron     124.9999989 magnetization       2.9994859
 augmentation part        3.5619899 magnetization       0.3771834

[...]

 d Force = 0.1686665E-04[-0.316E-03, 0.349E-03]  d Energy =-0.3094537E-03 0.326E-03
 d Force =-0.6961728E+00[-0.698E+00,-0.694E+00]  d Ewald  =-0.6961738E+00 0.966E-06

 Conjugate gradient step on ions:
 trial-energy change:    0.000309  1 .order   -0.000017   -0.000349    0.000316
  (g-gl).g = 0.572E-03      g.g   = 0.497E-03  gl.gl    = 0.244E-02
 g(Force)  = 0.497E-03   g(Stress)= 0.000E+00 ortho     =-0.215E-05
 gamma     =   0.23400
 trial     =   0.70365
 opt step  =   0.36967  (harmonic =   0.36967) maximal distance =0.00103461
 next E    =  -296.141179   (d E  =  -0.00009)

 real space projection operators:
  max/ min on nodes  :       1715.62       1597.25

[...]

 Broyden mixing:
  rms(total) = 0.10279E-02    rms(broyden)= 0.10277E-02
  rms(prec ) = 0.10473E-02
  weight for this iteration     100.00

 eigenvalues of (default mixing * dielectric matrix)
  average eigenvalue GAMMA=   0.8467
  1.0383  0.6551

[...]

--------------------------------------- Iteration      9(   4)  ---------------------------------------

 eigenvalue-minimisations  :  3638
 total energy-change (2. order) :-0.9934542E-05  (-0.8431678E-06)
 number of electron     124.9999989 magnetization       2.9995803
 augmentation part        3.5616856 magnetization       0.3770731

 Free energy of the ion-electron system (eV)
  alpha Z        PSCENC =        28.03727721
  Ewald energy   TEWEN  =     38968.24640568
  -Hartree energ DENC   =    -43470.09954765
  -exchange      EXHF   =         0.00000000
  -V(xc)+E(xc)   XCENC  =       542.25679985
  PAW double counting   =     14994.34807208   -15049.83220374
  entropy T*S    EENTRO =        -0.00109557
  eigenvalues    EBANDS =     -1702.59797026
  atomic energy  EATOM  =      5300.13209638
  Solvation  Ediel_sol  =        93.36916319
  free energy    TOTEN  =      -296.14100282 eV

  energy without entropy =     -296.13990725  energy(sigma->0) =     -296.14045503

 average (electrostatic) potential at core
  the test charge radii are     0.7672  0.7089
  (the norm of the test charge is              1.0000)
       1 -38.6819       2 -38.5203       3 -38.5205       4 -38.6819       5 -38.7094
       6 -38.5205       7 -38.5204       8 -38.7699       9 -38.7700      10 -38.5205
      11 -38.5203      12 -38.7093      13 -38.7699      14 -38.7094      15 -38.6819
      16 -76.2915      17 -76.3781      18 -76.2914      19 -76.4465      20 -76.2916
      21 -75.9594      22 -75.9589      23 -76.2914      24 -76.4390      25 -75.9593
      26 -76.3781      27 -76.4390      28 -76.4390      29 -76.2916      30 -76.2914
      31 -76.3783

 E-fermi :  -6.1081     XC(G=0):  -1.1853     alpha+bet : -0.9949

[...]

 spin component 2

[...]

 k-point    14 :       0.0000    0.3750    0.0000
  band No.  band energies     occupation
      1     -24.6672      1.00000
      2     -24.3312      1.00000
      3     -23.9133      1.00000
      4     -23.6534      1.00000
      5     -23.0791      1.00000
      6     -22.9974      1.00000
      7     -22.5813      1.00000
      8     -22.5640      1.00000
      9     -22.2870      1.00000
     10     -21.8965      1.00000
     11     -21.8610      1.00000
     12     -21.7749      1.00000
     13     -21.4168      1.00000
     14     -20.6660      1.00000
     15     -20.3375      1.00000
     16     -20.3286      1.00000
     17     -15.1067      1.00000
     18     -15.0210      1.00000
     19     -14.7352      1.00000
     20     -14.6840      1.00000
     21     -14.4514      1.00000
     22     -14.3119      1.00000
     23     -13.9597      1.00000
     24     -13.3185      1.00000
     25     -13.2092      1.00000
     26     -13.1035      1.00000
     27     -12.8768      1.00000
     28     -12.7165      1.00000
     29     -12.2425      1.00000
     30     -11.7261      1.00000
     31     -11.5166      1.00000
     32     -11.2444      1.00000
     33     -11.2415      1.00000
     34     -11.0300      1.00000
     35     -10.8582      1.00000
     36     -10.8049      1.00000
     37     -10.8005      1.00000
     38     -10.5580      1.00000
     39     -10.4709      1.00000
     40     -10.2651      1.00000
     41     -10.2637      1.00000
     42     -10.0359      1.00000
     43      -9.9934      1.00000
     44      -9.8080      1.00000
     45      -9.4673      1.00000
     46      -9.4272      1.00000
     47      -9.1190      1.00000
     48      -8.9702      1.00000
     49      -8.8026      1.00000
     50      -8.6420      1.00000
     51      -8.4535      1.00000
     52      -8.4164      1.00000
     53      -8.1702      1.00000
     54      -8.1115      1.00000
     55      -7.4974      1.00000
     56      -7.2340      1.00000
     57      -7.2122      1.00000
     58      -6.8104      1.00000
     59      -6.4694      1.00000
     60      -6.3238      1.00000
[...]
     82       0.9038      0.00000
     83       0.9880      0.00000
     84       1.0144      0.00000
     85       1.1760      0.00000
     86       1.2812      0.00000
     87       1.2886      0.00000
     88       1.3579      0.00000
     89       1.3582      0.00000
     90       1.4863      0.00000
     91       1.4874      0.00000
     92       1.5228      0.00000
     93       1.6135      0.00000
     94       1.6148      0.00000
     95       1.6708      0.00000
     96       1.7284      0.00000

[...]

 soft charge-density along one line, spin component           2
         0         1         2         3         4         5         6         7         8         9
 total charge-density along one line

------------------------ aborting loop because EDIFF is reached ----------------------------------------

[...]

  FORCE on cell =-STRESS in cart. coord.  units (eV):
  Direction    XX          YY          ZZ          XY          YZ          ZX
  Alpha Z    28.03728    28.03728    28.03728
  Ewald   43136.65871 43136.68907-47305.10632     0.00000    -0.00000     0.00000
  Hartree 42968.37883 42968.38699-42466.67184     0.00021     0.00000    -0.00000
  E(xc)    -502.12291  -502.12526  -507.42613    -0.00819     0.00000    -0.00000
  Local  -87437.05976-87437.09372 88207.69801     0.00338     0.00000    -0.00000
  n-local  -233.30326  -233.30284  -230.80760    -0.00598    -0.00000     0.00000
  augment    16.77419    16.77383    19.20009     0.00005     0.00000    -0.00000
  Kinetic  2016.00685  2015.99170  2255.74151    -0.22048    -0.00000    -0.00000
  Fock        0.00000     0.00000     0.00000     0.00000     0.00000     0.00000
  Total      -6.63008    -6.64295     0.66500     0.00000     0.00000     0.00000
  in kB      -3.45928    -3.46599     0.34697     0.00000     0.00000     0.00000

 VOLUME and BASIS-vectors are now :
  energy-cutoff  :      550.00
  volume of cell :     3070.74
      direct lattice vectors                 reciprocal lattice vectors
     5.024366704 -8.702497373  0.000000000     0.099515029 -0.057454772  0.000000000
     5.024366704  8.702497373  0.000000000     0.099515029  0.057454772  0.000000000
     0.000000000  0.000000000 35.114664386     0.000000000  0.000000000  0.028478131

  length of vectors
    10.048767154 10.048767154 35.114664386     0.114909929  0.114909929  0.028478131

 FORCES acting on ions
    electron-ion (+dipol)            ewald-force                    non-local-force                 convergence-correction
   -.232E+01 -.134E+01 -.137E-07   0.270E+01 0.156E+01 -.231E-18   -.155E+00 -.890E-01 0.000E+00   -.731E-03 -.310E-03 0.220E-11
   -.168E+02 -.732E+01 0.160E-08   0.178E+02 0.701E+01 0.257E-18   -.269E+00 0.208E+00 0.000E+00   -.124E-02 -.772E-03 0.219E-11
   -.206E+01 0.182E+02 0.682E-07   0.284E+01 -.189E+02 0.144E-18   -.314E+00 0.130E+00 0.000E+00   0.106E-02 0.129E-02 0.222E-11
   0.151E-03 0.268E+01 -.133E-09   -.481E-11 -.312E+01 -.269E-18   0.000E+00 0.179E+00 0.000E+00   -.406E-07 0.300E-03 0.280E-11
   -.162E+01 0.939E+00 0.188E-07   0.135E+01 -.784E+00 -.238E-18   0.178E+00 -.103E+00 0.000E+00   -.206E-02 0.839E-03 0.234E-11
   -.147E+02 -.109E+02 -.275E-07   0.150E+02 0.119E+02 0.324E-19   0.446E-01 -.337E+00 0.000E+00   -.167E-02 -.483E-03 0.246E-11
   0.206E+01 0.182E+02 -.673E-07   -.284E+01 -.189E+02 -.162E-18   0.314E+00 0.130E+00 0.000E+00   -.106E-02 0.129E-02 0.233E-11
   0.190E+01 0.109E+01 -.354E-07   -.228E+01 -.131E+01 0.130E-19   0.114E+00 0.655E-01 0.000E+00   -.198E-03 -.836E-04 0.253E-11
   0.138E-03 -.219E+01 0.174E-09   0.930E-12 0.263E+01 0.118E-18   0.000E+00 -.131E+00 0.000E+00   -.377E-07 -.188E-03 0.252E-11
   0.147E+02 -.109E+02 0.277E-07   -.150E+02 0.119E+02 0.925E-19   -.446E-01 -.337E+00 0.000E+00   0.167E-02 -.483E-03 0.345E-11
   0.168E+02 -.732E+01 -.233E-08   -.178E+02 0.701E+01 -.645E-19   0.269E+00 0.208E+00 0.000E+00   0.124E-02 -.772E-03 0.116E-11
   0.119E-03 -.188E+01 -.679E-09   -.242E-12 0.157E+01 0.114E-18   0.000E+00 0.207E+00 0.000E+00   0.414E-08 -.221E-02 0.196E-11
   -.190E+01 0.109E+01 0.353E-07   0.228E+01 -.131E+01 0.311E-18   -.114E+00 0.655E-01 0.000E+00   0.198E-03 -.837E-04 0.207E-11
   0.162E+01 0.939E+00 -.195E-07   -.135E+01 -.784E+00 0.827E-20   -.178E+00 -.103E+00 0.000E+00   0.206E-02 0.840E-03 0.355E-11
   0.232E+01 -.134E+01 0.128E-07   -.270E+01 0.156E+01 -.193E-18   0.155E+00 -.890E-01 0.000E+00   0.731E-03 -.310E-03 0.280E-11
   -.898E+01 -.390E+01 0.305E-06   0.100E+02 0.388E+01 0.930E-19   -.450E+00 0.432E-01 0.000E+00   -.361E-02 -.474E-02 0.393E-11
   -.218E+02 0.126E+02 0.285E-06   0.233E+02 -.134E+02 0.599E-18   -.533E+00 0.310E+00 0.000E+00   0.422E-03 0.511E-06 0.345E-11
   -.111E+01 0.974E+01 -.161E-06   0.165E+01 -.106E+02 -.189E-18   -.262E+00 0.372E+00 0.000E+00   0.339E-02 0.475E-02 0.520E-11
   -.305E-02 0.741E-02 -.114E-09   -.396E-11 -.805E-02 -.565E-18   0.169E-20 0.485E-03 0.000E+00   0.361E-07 0.185E-03 0.478E-11
   -.788E+01 -.582E+01 0.415E-07   0.839E+01 0.674E+01 -.292E-18   -.190E+00 -.412E+00 0.000E+00   -.672E-02 -.290E-03 0.377E-11
   -.919E+02 -.530E+02 -.628E-07   0.102E+03 0.591E+02 0.387E-18   -.924E+01 -.533E+01 0.000E+00   -.873E-02 -.403E-02 0.388E-11
   -.258E-02 0.106E+03 0.125E-10   0.391E-11 -.118E+03 0.687E-19   0.000E+00 0.107E+02 0.000E+00   -.482E-07 0.103E-01 0.371E-11
   0.111E+01 0.974E+01 0.161E-06   -.165E+01 -.106E+02 -.538E-18   0.262E+00 0.372E+00 0.000E+00   -.339E-02 0.475E-02 0.511E-11
   0.723E+00 -.420E+00 0.985E-08   -.108E+01 0.628E+00 -.421E-19   0.149E+00 -.854E-01 0.000E+00   -.329E-03 -.574E-03 0.466E-11
   0.919E+02 -.530E+02 0.626E-07   -.102E+03 0.591E+02 0.112E-18   0.924E+01 -.533E+01 0.000E+00   0.873E-02 -.403E-02 0.267E-11
   0.218E+02 0.126E+02 -.285E-06   -.233E+02 -.134E+02 -.103E-18   0.533E+00 0.310E+00 0.000E+00   -.422E-03 0.541E-06 0.370E-11
   -.307E-02 0.837E+00 0.580E-12   -.417E-13 -.125E+01 0.288E-18   0.000E+00 0.173E+00 0.000E+00   -.277E-07 -.279E-03 0.549E-11
   -.729E+00 -.420E+00 -.983E-08   0.108E+01 0.628E+00 0.453E-18   -.149E+00 -.854E-01 0.000E+00   0.329E-03 -.574E-03 0.252E-11
   0.787E+01 -.582E+01 -.416E-07   -.839E+01 0.674E+01 -.918E-19   0.190E+00 -.412E+00 0.000E+00   0.672E-02 -.290E-03 0.111E-10
   0.898E+01 -.390E+01 -.305E-06   -.100E+02 0.388E+01 -.319E-18   0.450E+00 0.432E-01 0.000E+00   0.361E-02 -.474E-02 -.906E-12
   -.301E-02 -.251E+02 -.147E-10   0.113E-11 0.269E+02 0.206E-18   0.000E+00 -.617E+00 0.000E+00   -.570E-07 -.326E-03 0.589E-11
   -.478E-01 0.169E-05 -.143E-07   0.467E-13 -.497E-13 0.000E+00   0.833E-15 0.158E-01 0.000E+00   -.124E-06 -.998E-03 0.106E-09

 POSITION                                       TOTAL-FORCE (eV/Angst)
      1.25777     -0.72460     17.55733        -0.000381      0.000816      0.000000
      2.51415      1.45586     17.55733         0.000191      0.000587      0.000000
      3.76423      3.62099     17.55733        -0.000392     -0.000863      0.000000
      5.02437      5.79936     17.55733        -0.000000     -0.000288      0.000000
      2.51163     -2.90085     17.55733        -0.002694      0.001130      0.000000
      3.77432     -0.72671     17.55733         0.000493      0.000389      0.000000
      6.28452      3.62099     17.55733         0.000392     -0.000863      0.000000
      3.76904     -5.07633     17.55733        -0.002825     -0.002291      0.000000
      5.02437     -2.90198     17.55733        -0.000000      0.003481      0.000000
      6.27442     -0.72671     17.55733        -0.000493      0.000389      0.000000
      7.53459      1.45586     17.55733        -0.000191      0.000587      0.000000
      5.02437     -7.25302     17.55733        -0.000000     -0.002415      0.000000
      6.27971     -5.07633     17.55733         0.002825     -0.002291      0.000000
      7.53711     -2.90085     17.55733         0.002694      0.001130      0.000000
      8.79097     -0.72460     17.55733         0.000381      0.000816      0.000000
      1.24927      0.72331     17.55733        -0.001458      0.001684      0.000000
      2.50395      2.90520     17.55733        -0.002933      0.002069      0.000000
      3.76622      5.08273     17.55733        -0.002798      0.000447      0.000000
      5.02437      7.25172     17.55733        -0.000000     -0.000469      0.000000
      2.50744     -1.45586     17.55733         0.001520     -0.002591      0.000000
      3.68863      0.67891     17.55733         0.000739     -0.000346      0.000000
      5.02437      2.99231     17.55733        -0.000000     -0.000371      0.000000
      6.28252      5.08273     17.55733         0.002798      0.000447      0.000000
      3.76771     -3.62603     17.55733         0.001204      0.000073      0.000000
      6.36011      0.67891     17.55733        -0.000739     -0.000346      0.000000
      7.54480      2.90520     17.55733         0.002933      0.002069      0.000000
      5.02437     -5.80263     17.55733         0.000000      0.001616      0.000000
      6.28103     -3.62603     17.55733        -0.001204      0.000073      0.000000
      7.54131     -1.45586     17.55733        -0.001520     -0.002591      0.000000
      8.79947      0.72331     17.55733         0.001458      0.001684      0.000000
      5.02437     -1.46020     17.55733        -0.000000     -0.003763      0.000000
    total drift:                               -0.047786      0.014756     -0.000000

  FREE ENERGIE OF THE ION-ELECTRON SYSTEM (eV)
  free  energy   TOTEN  =      -296.14100282 eV

  energy  without entropy=     -296.13990725  energy(sigma->0) =     -296.14045503

 d Force = 0.7856025E-04[ 0.730E-05, 0.150E-03]  d Energy = 0.2253364E-03-0.147E-03
 d Force = 0.3308683E+00[ 0.330E+00, 0.331E+00]  d Ewald  = 0.3308684E+00-0.103E-06

 reached required accuracy - stopping structural energy minimisation
 writing wavefunctions

 total charge

[...]

 magnetization (x)

# of ion       s       p       d       tot
    1       -0.002  -0.009   0.000  -0.011
    2       -0.003  -0.011   0.000  -0.014
    3       -0.003  -0.011   0.000  -0.014
    4       -0.002  -0.009   0.000  -0.011
    5        0.001   0.001   0.000   0.002
    6       -0.003  -0.011   0.000  -0.014
    7       -0.003  -0.012   0.000  -0.015
    8       -0.002  -0.009   0.000  -0.011
    9       -0.002  -0.009   0.000  -0.011
   10       -0.003  -0.011   0.000  -0.015
   11       -0.003  -0.011   0.000  -0.015
   12        0.001   0.001   0.000   0.002
   13       -0.002  -0.009   0.000  -0.011
   14        0.001   0.001   0.000   0.002
   15       -0.002  -0.009   0.000  -0.011
   16        0.005   0.050   0.000   0.055
   17        0.003   0.060   0.000   0.063
   18        0.005   0.051   0.000   0.056
   19        0.003   0.059   0.000   0.062
   20        0.005   0.049   0.000   0.054
   21        0.052   0.537   0.000   0.589
   22        0.051   0.539   0.000   0.591
   23        0.005   0.048   0.000   0.053
   24        0.002   0.042   0.000   0.044
   25        0.051   0.541   0.000   0.592
   26        0.003   0.065   0.000   0.068
   27        0.002   0.043   0.000   0.045
   28        0.002   0.045   0.000   0.047
   29        0.005   0.050   0.000   0.055
   30        0.005   0.049   0.000   0.054
   31        0.003   0.063   0.000   0.065
tot          0.171   2.173   0.000   2.344