 vasp.5.4.4.18Apr17-6-g9f103f2a35 (build May 01 2020 14:57:12) complex

 executed on             LinuxIFC date 2020.10.16  20:54:12

 INCAR:
 POTCAR:    PAW_PBE B 06Sep2000
 POTCAR:    PAW_PBE N 08Apr2002
 POTCAR:    PAW_PBE C 08Apr2002
 POTCAR:    PAW_PBE F 08Apr2002
 POTCAR:    PAW_PBE O 08Apr2002

 POTCAR:    PAW_PBE B 06Sep2000
   VRHFIN =B: s2p1

   TITEL  = PAW_PBE B 06Sep2000
   POMASS =   10.811; ZVAL   =    3.000    mass and valenz
   ENMAX  =  318.614; ENMIN  =  238.960 eV

 POTCAR:    PAW_PBE N 08Apr2002
   VRHFIN =N: s2p3

   TITEL  = PAW_PBE N 08Apr2002
   POMASS =   14.001; ZVAL   =    5.000    mass and valenz
   ENMAX  =  400.000; ENMIN  =  300.000 eV

 POTCAR:    PAW_PBE C 08Apr2002
   VRHFIN =C: s2p2

[...]

 POTCAR:    PAW_PBE F 08Apr2002
   VRHFIN =F: s2p5

[...]

 POTCAR:    PAW_PBE O 08Apr2002
   VRHFIN =O: s2p4

   TITEL  = PAW_PBE O 08Apr2002
   POMASS =   16.000; ZVAL   =    6.000    mass and valenz
   ENMAX  =  400.000; ENMIN  =  300.000 eV

 Optimization of the real space projectors (new method)

 maximal supplied QI-value         = 22.11
 optimisation between [QCUT,QGAM] = [ 11.94, 23.88] = [ 39.92,159.67] Ry
 Optimized for a Real-space Cutoff    1.18 Angstroem

   l    n(q)    QCUT    max X(q) W(low)/X(q) W(high)/X(q)  e(spline)
   0      8    11.939    53.033    0.11E-03    0.34E-03    0.60E-07
   0      8    11.939    34.740    0.11E-03    0.34E-03    0.59E-07
   1      8    11.939    30.949    0.22E-03    0.20E-03    0.17E-06
   1      8    11.939    19.518    0.20E-03    0.18E-03    0.16E-06
 Optimization of the real space projectors (new method)

[...]

   l    n(q)    QCUT    max X(q) W(low)/X(q) W(high)/X(q)  e(spline)
   0      8    11.883    14.049    0.56E-04    0.86E-04    0.22E-06
   0      8    11.883     8.945    0.81E-04    0.11E-03    0.30E-06
   1      8    11.883     7.086    0.16E-03    0.15E-04    0.31E-06
   1      8    11.883     6.747    0.15E-03    0.14E-04    0.28E-06
 Optimization of the real space projectors (new method)

 maximal supplied QI-value         = 24.76
 optimisation between [QCUT,QGAM] = [ 11.88, 24.01] = [ 39.54,161.47] Ry
 Optimized for a Real-space Cutoff    1.18 Angstroem

   l    n(q)    QCUT    max X(q) W(low)/X(q) W(high)/X(q)  e(spline)
   0      8    11.883    20.381    0.86E-04    0.11E-03    0.31E-06
   0      8    11.883    15.268    0.94E-04    0.12E-03    0.33E-06
   1      8    11.883     5.964    0.19E-03    0.18E-04    0.33E-06
   1      8    11.883     5.382    0.17E-03    0.20E-04    0.29E-06
  PAW_PBE B 06Sep2000                   :
  PAW_PBE N 08Apr2002                   :
  PAW_PBE C 08Apr2002                   :
  PAW_PBE F 08Apr2002                   :
  PAW_PBE O 08Apr2002                   :

 POSCAR: B N C F O
  positions in direct lattice
  velocities in cartesian coordinates

 METAGGA = SCAN     LMAXTAU =  6    LMIXTAU =  F

 ion  position               nearest neighbor table
   1  0.111  0.056  0.500-  42 1.45  37 1.45  43 1.45
   2  0.111  0.222  0.500-  37 1.45  38 1.45  44 1.45
   3  0.111  0.389  0.500-  39 1.45  38 1.45  45 1.45
   4  0.111  0.556  0.500-  40 1.45  39 1.45  46 1.45
   5  0.111  0.722  0.500-  41 1.45  47 1.45  40 1.45
   6  0.111  0.889  0.500-  41 1.45  48 1.45  42 1.45
   7  0.278  0.056  0.500-  48 1.45  49 1.45  43 1.45
   8  0.278  0.222  0.500-  43 1.45  44 1.45  50 1.45
   9  0.278  0.389  0.500-  44 1.45  51 1.45  45 1.45
  10  0.278  0.556  0.500-  46 1.45  52 1.45  45 1.45
  11  0.278  0.722  0.500-  47 1.45  53 1.45  46 1.45
  12  0.278  0.889  0.500-  48 1.45  47 1.45  54 1.45
  13  0.444  0.056  0.500-  54 1.45  55 1.45  49 1.45
  14  0.444  0.222  0.500-  49 1.45  56 1.45  50 1.45
  15  0.444  0.389  0.501-  57 1.45  50 1.45  51 1.45
  16  0.444  0.556  0.500-  58 1.45  52 1.45  51 1.45
  17  0.444  0.722  0.500-  53 1.45  59 1.45  52 1.45
  18  0.444  0.889  0.500-  54 1.45  60 1.45  53 1.45
  19  0.611  0.056  0.500-  55 1.45  60 1.45  61 1.45
  20  0.611  0.222  0.500-  55 1.45  62 1.45  56 1.45
  21  0.611  0.389  0.500-  63 1.45  56 1.45  57 1.45
  22  0.611  0.556  0.500-  64 1.45  57 1.45  58 1.45
  23  0.611  0.722  0.500-  65 1.45  59 1.45  58 1.45
  24  0.611  0.889  0.500-  60 1.45  66 1.45  59 1.45
  25  0.778  0.056  0.500-  67 1.45  61 1.45  66 1.45
  26  0.778  0.222  0.500-  68 1.45  62 1.45  61 1.45
  27  0.778  0.389  0.500-  69 1.45  63 1.45  62 1.45
  28  0.778  0.556  0.500-  70 1.45  63 1.45  64 1.45
  29  0.778  0.722  0.500-  71 1.45  64 1.45  65 1.45
  30  0.778  0.889  0.500-  72 1.45  66 1.45  65 1.45
  31  0.944  0.056  0.500-  37 1.45  72 1.45  67 1.45
  32  0.944  0.222  0.500-  68 1.45  38 1.45  67 1.45
  33  0.944  0.389  0.500-  69 1.45  68 1.45  39 1.45
  34  0.944  0.556  0.500-  40 1.45  70 1.45  69 1.45
  35  0.944  0.722  0.500-  41 1.45  70 1.45  71 1.45
  36  0.944  0.889  0.500-  42 1.45  71 1.45  72 1.45
  37  0.056  0.111  0.500-   2 1.45  31 1.45   1 1.45
  38  0.056  0.278  0.500-   3 1.45   2 1.45  32 1.45
  39  0.056  0.445  0.500-   3 1.45   4 1.45  33 1.45
  40  0.056  0.611  0.500-  34 1.45   4 1.45   5 1.45
  41  0.056  0.778  0.500-  35 1.45   5 1.45   6 1.45
  42  0.056  0.945  0.500-   1 1.45  36 1.45   6 1.45
  43  0.222  0.111  0.500-   8 1.45   7 1.45   1 1.45
  44  0.222  0.278  0.500-   9 1.45   8 1.45   2 1.45
  45  0.222  0.445  0.500-  10 1.45   9 1.45   3 1.45
  46  0.222  0.611  0.500-  10 1.45  11 1.45   4 1.45
  47  0.222  0.778  0.500-  11 1.45  12 1.45   5 1.45
  48  0.222  0.945  0.500-   7 1.45  12 1.45   6 1.45
  49  0.389  0.111  0.500-  14 1.45   7 1.45  13 1.45
  50  0.389  0.278  0.501-  15 1.45   8 1.45  14 1.45
  51  0.389  0.445  0.501-   9 1.45  16 1.45  15 1.45
  52  0.389  0.611  0.500-  10 1.45  16 1.45  17 1.45
  53  0.389  0.778  0.500-  17 1.45  18 1.45  11 1.45
  54  0.389  0.945  0.500-  13 1.45  18 1.45  12 1.45
  55  0.556  0.111  0.500-  20 1.45  19 1.45  13 1.45
  56  0.556  0.278  0.500-  14 1.45  21 1.45  20 1.45
  57  0.556  0.445  0.500-  15 1.45  21 1.45  22 1.45
  58  0.556  0.611  0.500-  16 1.45  23 1.45  22 1.45
  59  0.556  0.778  0.500-  17 1.45  23 1.45  24 1.45
  60  0.556  0.945  0.500-  24 1.45  19 1.45  18 1.45
[...]
  68  0.889  0.278  0.500-  26 1.45  32 1.45  33 1.45
  69  0.889  0.445  0.500-  27 1.45  33 1.45  34 1.45
  70  0.889  0.611  0.500-  28 1.45  34 1.45  35 1.45
  71  0.889  0.778  0.500-  29 1.45  36 1.45  35 1.45
  72  0.889  0.945  0.500-  30 1.45  31 1.45  36 1.45
  73  0.377  0.298  0.659-  76 1.34  78 1.34  77 1.35  74 1.51
  74  0.362  0.267  0.617-  80 1.33  79 1.33  73 1.51
  75  0.314  0.523  0.609-  81 1.16  82 1.16
  76  0.467  0.385  0.663-  73 1.34
  77  0.377  0.226  0.682-  73 1.35
  78  0.301  0.314  0.670-  73 1.34
  79  0.438  0.257  0.603-  74 1.33
  80  0.272  0.186  0.610-  74 1.33
  81  0.402  0.578  0.606-  75 1.16
  82  0.227  0.467  0.612-  75 1.16

IMPORTANT INFORMATION: All symmetrisations will be switched off!
NOSYMM: (Re-)initialisation of all symmetry stuff for point group C_1.

 KPOINTS: K-Point Grid

Automatic generation of k-mesh.
Space group operators:
 irot       det(A)        alpha          n_x          n_y          n_z        tau_x        tau_y        tau_z
    1     1.000000     0.000000     1.000000     0.000000     0.000000     0.000000     0.000000     0.000000

 Subroutine IBZKPT returns following result:

 Found      5 irreducible k-points:

 Following reciprocal coordinates:
            Coordinates               Weight
  0.000000  0.000000  0.000000      1.000000
  0.333333  0.000000  0.000000      2.000000
  0.000000  0.333333  0.000000      2.000000
  0.333333  0.333333  0.000000      2.000000
 -0.333333  0.333333  0.000000      2.000000

 Following cartesian coordinates:
            Coordinates               Weight
  0.000000  0.000000  0.000000      1.000000
  0.022114 -0.012768  0.000000      2.000000
  0.022114  0.012768  0.000000      2.000000
  0.044229  0.000000  0.000000      2.000000
  0.000000  0.025535  0.000000      2.000000

 SYSTEM =  SiC
 POSCAR =  B N C F O

 Startparameter for this run:
   NWRITE =      2    write-flag & timer
   PREC   = accura    normal or accurate (medium, high low for compatibility)
   ISTART =      1    job   : 0-new  1-cont  2-samecut
   ICHARG =      0    charge: 1-file 2-atom 10-const
   ISPIN  =      2    spin polarized calculation?
   LNONCOLLINEAR =      F non collinear calculations
   LSORBIT =      F    spin-orbit coupling
   INIWAV =      1    electr: 0-lowe 1-rand  2-diag
   LASPH  =      T    aspherical Exc in radial PAW
   METAGGA=      F    non-selfconsistent MetaGGA calc.

 Electronic Relaxation 1
   ENCUT  =  550.0 eV  40.42 Ry    6.36 a.u.  28.82 28.82 67.15*2*pi/ulx,y,z
   ENINI  =  550.0     initial cutoff
   ENAUG  =  644.9 eV  augmentation charge cutoff
   NELM   =    100;   NELMIN=  2; NELMDL=  0     # of ELM steps
   EDIFF  = 0.1E-04   stopping-criterion for ELM
   LREAL  =      T    real-space projection
   NLSPLINE    = F    spline interpolate recip. space projectors
   LCOMPAT=      F    compatible to vasp.4.4
   GGA_COMPAT  = T    GGA compatible to vasp.4.4-vasp.4.6
   LMAXPAW     = -100 max onsite density
   LMAXMIX     =    2 max onsite mixed and CHGCAR
   VOSKOWN=      0    Vosko Wilk Nusair interpolation
   ROPT   =   -0.00025  -0.00025  -0.00025  -0.00025
   ROPT   =   -0.00025
 Ionic relaxation
   EDIFFG = -.2E-01   stopping-criterion for IOM
   NSW    =    500    number of steps for IOM
   NBLOCK =      1;   KBLOCK =    500    inner block; outer block
   IBRION =      2    ionic relax: 0-MD 1-quasi-New 2-CG
   NFREE  =      1    steps in history (QN), initial steepest desc. (CG)
   ISIF   =      2    stress and relaxation
   IWAVPR =     11    prediction:  0-non 1-charg 2-wave 3-comb
   ISYM   =      0    0-nonsym 1-usesym 2-fastsym
   LCORR  =      T    Harris-Foulkes like correction to forces

   POTIM  = 0.5000    time-step for ionic-motion
   TEIN   =    0.0    initial temperature
   TEBEG  =    0.0;   TEEND  =   0.0 temperature during run
   SMASS  =  -3.00    Nose mass-parameter (am)
   estimated Nose-frequenzy (Omega)   =  0.10E-29 period in steps =****** mass=  -0.519E-26a.u.
   SCALEE = 1.0000    scale energy and forces
   NPACO  =    256;   APACO  = 16.0  distance and # of slots for P.C.
   PSTRESS=    0.0 pullay stress

  Mass of Ions in am
   POMASS =  10.81 14.00 12.01 19.00 16.00
  Ionic Valenz
   ZVAL   =   3.00  5.00  4.00  7.00  6.00
  Atomic Wigner-Seitz radii
  virtual crystal weights
   VCA    =   1.00  1.00  1.00  1.00  1.00
   NELECT =     345.9000    total number of electrons
   NUPDOWN=      -1.0000    fix difference up-down

 DOS related values:
   EMIN   =  10.00;   EMAX   =-10.00  energy-range for DOS
   EFERMI =   0.00
   ISMEAR =     0;   SIGMA  =   0.05  broadening in eV -4-tet -1-fermi 0-gaus

 Electronic relaxation 2 (details)
   IALGO  =     68    algorithm
   LDIAG  =      T    sub-space diagonalisation (order eigenvalues)
   LSUBROT=      F    optimize rotation matrix (better conditioning)
   TURBO    =      0    0=normal 1=particle mesh
   IRESTART =      0    0=no restart 2=restart with 2 vectors
   NREBOOT  =      0    no. of reboots
   NMIN     =      0    reboot dimension
[...]
   0.482E+00 0.430E+01 0.446E+02   -.471E+00 -.431E+01 -.446E+02   0.117E-02 0.448E-03 -.906E-03   -.276E-03 0.940E-04 -.130E-03
   -.817E+01 0.788E+01 0.483E+02   0.817E+01 -.788E+01 -.483E+02   -.202E-03 0.142E-03 -.685E-03   -.259E-03 0.153E-03 -.157E-03
   -.137E+02 0.610E+01 0.488E+02   0.137E+02 -.609E+01 -.488E+02   -.129E-02 -.807E-03 -.106E-02   -.333E-03 0.359E-03 -.104E-03
   -.107E+02 0.224E+01 0.461E+02   0.106E+02 -.222E+01 -.461E+02   -.163E-02 -.192E-02 -.506E-03   -.375E-03 0.315E-03 -.807E-04
   -.304E+01 -.116E+01 0.432E+02   0.303E+01 0.117E+01 -.432E+02   0.968E-04 -.231E-02 -.345E-03   -.391E-03 0.198E-03 -.939E-04
   0.148E+02 -.535E+01 0.490E+02   -.148E+02 0.536E+01 -.490E+02   0.514E-02 -.407E-02 -.728E-03   -.274E-03 0.171E-03 -.237E-03
   0.133E+02 -.848E+01 0.498E+02   -.133E+02 0.849E+01 -.497E+02   0.592E-02 -.435E-02 0.330E-03   -.351E-03 0.103E-04 -.369E-03
   0.556E+01 -.784E+01 0.477E+02   -.558E+01 0.783E+01 -.476E+02   0.506E-02 -.304E-02 0.283E-03   -.199E-03 0.184E-03 -.332E-03
   -.132E+01 -.318E+01 0.438E+02   0.130E+01 0.318E+01 -.437E+02   0.158E-02 -.169E-02 -.827E-03   -.160E-03 0.225E-04 -.184E-03
   0.561E+00 0.863E+00 0.426E+02   -.572E+00 -.849E+00 -.425E+02   0.984E-03 -.250E-02 -.857E-03   -.150E-03 0.262E-03 -.127E-03
   0.890E+01 -.116E+00 0.454E+02   -.891E+01 0.129E+00 -.453E+02   0.306E-02 -.285E-02 0.137E-04   -.259E-03 0.152E-03 -.185E-03
   0.390E+02 -.124E+02 0.103E+03   -.390E+02 0.124E+02 -.103E+03   0.994E-02 -.122E-03 0.182E-01   0.449E-03 0.470E-04 -.480E-03
   0.318E+02 -.237E+02 0.104E+03   -.318E+02 0.238E+02 -.104E+03   0.974E-02 -.606E-02 -.225E-02   0.513E-04 -.596E-03 -.972E-03
   0.156E+02 -.278E+02 0.940E+02   -.157E+02 0.278E+02 -.938E+02   0.290E-02 -.147E-01 0.254E-02   0.280E-03 0.441E-03 -.899E-03
   0.405E+01 -.154E+02 0.769E+02   -.411E+01 0.155E+02 -.769E+02   -.277E-02 -.982E-02 0.100E-01   0.167E-03 -.481E-03 -.397E-03
   0.117E+02 0.357E+00 0.739E+02   -.117E+02 -.323E+00 -.739E+02   0.313E-03 -.322E-02 0.161E-01   0.606E-04 0.249E-03 -.205E-03
   0.304E+02 0.257E+01 0.872E+02   -.304E+02 -.254E+01 -.871E+02   0.692E-02 0.234E-02 -.359E-02   0.816E-04 -.123E-03 -.548E-03
   0.428E+02 0.902E+01 0.138E+03   -.429E+02 -.904E+01 -.138E+03   0.287E-01 0.626E-02 0.763E-02   -.514E-03 0.376E-05 -.403E-03
   0.296E+02 -.189E+02 0.149E+03   -.297E+02 0.189E+02 -.149E+03   0.269E-01 -.110E-01 -.233E-01   -.127E-03 0.371E-03 -.118E-02
   0.140E+02 -.317E+02 0.142E+03   -.142E+02 0.318E+02 -.142E+03   0.270E-01 -.204E-01 0.324E-01   -.309E-03 -.498E-03 -.860E-03
   -.166E+01 -.346E+02 0.105E+03   0.160E+01 0.347E+02 -.105E+03   0.201E-03 -.397E-01 -.892E-02   0.431E-03 0.101E-02 -.115E-02
   0.574E+01 -.769E+01 0.808E+02   -.574E+01 0.775E+01 -.808E+02   0.186E-02 -.105E-01 0.987E-02   0.377E-04 -.712E-03 -.352E-03
   0.276E+02 0.159E+02 0.949E+02   -.276E+02 -.159E+02 -.949E+02   0.110E-01 0.103E-02 0.122E-01   0.691E-04 0.481E-04 -.320E-03
   0.171E+02 0.390E+02 0.128E+03   -.171E+02 -.391E+02 -.128E+03   0.144E-01 0.164E-01 -.270E-01   -.209E-03 -.883E-03 -.467E-03
   -.217E+01 0.143E+02 0.171E+03   0.215E+01 -.145E+02 -.171E+03   -.511E-02 0.778E-02 -.352E-01   0.812E-03 0.556E-03 -.214E-03
   -.186E+02 -.661E+01 0.157E+03   0.188E+02 0.659E+01 -.157E+03   -.125E-01 0.861E-02 -.341E-01   0.593E-03 -.634E-03 -.543E-03
   -.275E+02 -.237E+02 0.135E+03   0.277E+02 0.236E+02 -.135E+03   -.312E-01 -.112E-01 0.400E-01   0.107E-02 -.384E-03 0.144E-03
   -.153E+02 -.155E+02 0.911E+02   0.154E+02 0.155E+02 -.911E+02   -.762E-02 -.124E-01 0.768E-02   0.191E-04 0.120E-03 -.178E-03
   0.586E+01 0.158E+02 0.868E+02   -.583E+01 -.158E+02 -.868E+02   0.433E-02 -.191E-02 0.213E-01   0.327E-03 -.942E-04 -.118E-03
   -.327E+01 0.305E+02 0.903E+02   0.330E+01 -.305E+02 -.903E+02   -.199E-02 0.221E-02 0.312E-02   -.535E-04 0.258E-03 -.260E-03
   -.215E+02 0.389E+02 0.125E+03   0.215E+02 -.390E+02 -.125E+03   -.163E-01 0.141E-01 -.135E-01   0.660E-03 -.456E-03 -.182E-03
   -.407E+02 0.164E+02 0.130E+03   0.408E+02 -.164E+02 -.130E+03   -.263E-01 0.105E-01 0.382E-02   0.707E-03 0.633E-03 -.187E-04
   -.420E+02 0.181E+01 0.115E+03   0.421E+02 -.176E+01 -.115E+03   -.263E-01 0.106E-01 -.837E-02   0.155E-03 -.643E-03 -.365E-04
   -.299E+02 -.781E+01 0.905E+02   0.299E+02 0.774E+01 -.903E+02   -.148E-01 -.230E-02 -.540E-02   0.141E-03 -.259E-03 -.104E-04
   -.979E+01 0.537E+01 0.763E+02   0.982E+01 -.541E+01 -.762E+02   -.407E-02 -.238E-02 0.354E-02   -.253E-03 -.298E-03 -.199E-03
[...]
   -.257E+01 -.225E+01 0.752E+02   0.255E+01 0.224E+01 -.751E+02   -.599E-02 -.412E-02 0.663E-02   -.183E-04 0.735E-04 -.389E-03
   -.860E+01 0.237E+01 0.726E+02   0.858E+01 -.235E+01 -.726E+02   -.628E-02 -.141E-02 0.171E-01   -.559E-04 0.228E-03 -.127E-03
   -.648E+00 0.213E+01 0.720E+02   0.624E+00 -.210E+01 -.719E+02   -.454E-02 0.460E-03 0.156E-02   0.121E-04 0.224E-04 -.302E-03
   0.123E+02 -.358E+01 0.747E+02   -.124E+02 0.360E+01 -.746E+02   -.140E-02 0.303E-03 0.183E-01   -.216E-03 -.489E-04 -.147E-03
   -.156E+00 0.153E+02 -.373E+03   -.238E+01 -.175E+02 0.367E+03   0.249E+01 0.199E+01 0.825E+01   0.694E-03 -.411E-03 0.600E-03
   -.458E+02 -.773E+02 -.264E+03   0.539E+02 0.885E+02 0.268E+03   -.835E+01 -.117E+02 -.201E+01   0.774E-03 -.774E-03 0.503E-03
   -.326E+02 -.865E+02 -.372E+03   0.326E+02 0.865E+02 0.373E+03   -.166E-01 -.386E-01 -.715E-01   0.466E-02 -.133E-02 -.892E-04
   -.541E+03 0.431E+02 -.782E+03   0.600E+03 -.452E+02 0.793E+03   -.577E+02 0.164E+01 -.746E+01   0.526E-03 0.578E-03 -.172E-04
   0.202E+03 0.380E+03 -.102E+04   -.224E+03 -.419E+03 0.106E+04   0.222E+02 0.387E+02 -.340E+02   0.299E-03 -.612E-03 0.100E-03
   0.181E+03 -.428E+03 -.888E+03   -.202E+03 0.481E+03 0.909E+03   0.195E+02 -.518E+02 -.179E+02   0.179E-02 -.149E-02 0.931E-03
   -.166E+03 0.395E+03 -.392E+03   0.190E+03 -.445E+03 0.370E+03   -.228E+02 0.488E+02 0.240E+02   0.132E-02 -.196E-02 -.316E-03
   0.474E+03 -.315E+02 -.470E+03   -.533E+03 0.380E+02 0.459E+03   0.571E+02 -.649E+01 0.131E+02   -.143E-02 -.114E-02 -.952E-05
   -.329E+03 -.677E+00 -.533E+03   0.394E+03 -.249E+02 0.528E+03   -.614E+02 0.244E+02 0.667E+01   0.428E-02 -.102E-02 -.440E-03
   0.244E+03 -.233E+03 -.586E+03   -.309E+03 0.258E+03 0.595E+03   0.615E+02 -.243E+02 -.640E+01   0.189E-02 0.177E-03 0.935E-03
   -.126E+02 -.213E+02 0.155E+02   0.568E-13 0.568E-13 0.102E-11   0.124E+02 0.212E+02 -.157E+02   0.153E-01 -.784E-02 -.188E-01

 POSITION                                       TOTAL-FORCE (eV/Angst)
      1.25657     -0.72434     17.56972         0.002026     -0.000163      0.001219
      2.51256      1.45133     17.57058         0.003109     -0.001018      0.000217
      3.76877      3.62699     17.56928        -0.001211      0.001434      0.000878
      5.02499      5.80268     17.56778         0.000874      0.000440     -0.001668
      6.28117      7.97824     17.56671         0.001525     -0.001324      0.001359
      7.53720     10.15382     17.56800         0.002729     -0.002039     -0.000119
      2.51278     -2.90013     17.57144        -0.002923     -0.000411      0.000181
      3.76870     -0.72448     17.57312        -0.003687      0.003805      0.000898
      5.02492      1.45116     17.57153        -0.004250     -0.001313     -0.001400
      6.28131      3.62726     17.56584        -0.004770      0.004699     -0.000098
      7.53745      5.80266     17.56742        -0.002089      0.003248     -0.001977
      8.79343      7.97814     17.56781        -0.002679      0.001834      0.001910
      3.76903     -5.07586     17.57034        -0.002800      0.001813      0.000079
      5.02506     -2.90039     17.57389        -0.001957     -0.000386      0.000858
      6.28136     -0.72458     17.57499         0.000281      0.000124      0.001059
      7.53761      1.45121     17.57011        -0.002815     -0.003547     -0.001100
      8.79356      3.62691     17.56806         0.000742      0.007654      0.000839
     10.04961      5.80248     17.56772        -0.003954      0.004276      0.001301
      5.02516     -7.25135     17.56796        -0.002160      0.004377      0.000761
      6.28117     -5.07583     17.57008        -0.001755      0.001598      0.000803
      7.53733     -2.90018     17.57156        -0.000887      0.001957      0.000934
      8.79346     -0.72442     17.57023        -0.002216     -0.001965      0.001418
     10.04954      1.45130     17.56876        -0.001899     -0.001434      0.000195
     11.30561      3.62687     17.56818        -0.001516      0.003377     -0.000859
      6.28115     -9.42684     17.56757         0.002944      0.000107     -0.000181
      7.53727     -7.25126     17.56742         0.003123      0.001563      0.001260
      8.79335     -5.07564     17.56819         0.002025      0.000674     -0.000108
     10.04944     -2.89995     17.56782         0.001136     -0.001751      0.000906
     11.30554     -0.72429     17.56743         0.000900     -0.002732      0.000338
     12.56160      1.45134     17.56739         0.002152     -0.002618      0.000895
      7.53711    -11.60238     17.56786         0.006888     -0.005019      0.000896
      8.79323     -9.42679     17.56837         0.006930     -0.001753     -0.000117
     10.04936     -7.25116     17.56786         0.005131     -0.000841      0.000604
     11.30551     -5.07553     17.56699         0.004301     -0.001557      0.000713
     12.56161     -2.89986     17.56677         0.003576     -0.003911      0.000326
     13.81763     -0.72425     17.56754         0.005013     -0.004385     -0.000157
      1.25686      0.72601     17.56890        -0.006916      0.002180      0.002254
      2.51300      2.90160     17.56956        -0.004540      0.003934     -0.000091
      3.76909      5.07728     17.56832        -0.003640     -0.000438      0.000225
      5.02515      7.25295     17.56683        -0.003197      0.002840      0.001049
      6.28122      9.42860     17.56659        -0.003484      0.001443      0.000990
      7.53729     11.60416     17.56844        -0.004648      0.003627     -0.001738
      2.51285     -1.44962     17.57180         0.002788      0.000049      0.003426
      3.76893      0.72599     17.57335         0.002039     -0.001544     -0.001714
      5.02521      2.90164     17.56950         0.005541      0.000439      0.004391
      6.28120      5.07749     17.56751         0.001278     -0.006816     -0.004689
      7.53730      7.25299     17.56698         0.000810      0.000159      0.000432
      8.79336      9.42858     17.56870        -0.000324     -0.000743      0.000879
      3.76894     -3.62525     17.57327         0.004144      0.002035     -0.000609
      5.02494     -1.44958     17.57715         0.001468     -0.003026      0.004861
      6.28110      0.72606     17.57506         0.004296      0.002952     -0.000869
      7.53709      2.90173     17.56779         0.001181     -0.003669      0.003360
      8.79333      5.07738     17.56760         0.003269     -0.007046      0.000381
     10.04945      7.25297     17.56795         0.002634     -0.004203      0.002043
      5.02506     -5.80081     17.56932         0.002511     -0.004615     -0.000300
      6.28109     -3.62524     17.57270         0.000525      0.000876      0.001655
      7.53718     -1.44959     17.57266         0.000482     -0.001294      0.003310
      8.79327      0.72601     17.57008         0.002755      0.004131     -0.000720
     10.04940      2.90172     17.56850         0.000384     -0.002359     -0.000087
     11.30553      5.07733     17.56776         0.003589     -0.003495     -0.000352
[...]
      8.79347     -7.97644     17.56753        -0.005440      0.000683      0.000114
     10.04953     -5.80080     17.56737        -0.004129      0.000803     -0.000409
     11.30560     -3.62516     17.56658        -0.003156      0.002355      0.001128
     12.56168     -1.44956     17.56708        -0.004188      0.004477     -0.001148
     13.81776      0.72605     17.56697        -0.004471      0.004255      0.001804
      5.08955     -1.02634     23.12576        -0.000338      0.000112     -0.000651
      4.73850     -1.24980     21.67729        -0.012931     -0.006992     -0.008447
      6.30846      2.71835     21.39447         0.002543      0.002744      0.002046
      6.42032     -1.06794     23.28622        -0.001939      0.004971     -0.003771
      4.54817     -1.96591     23.93575        -0.004424     -0.001529     -0.003460
      4.63398      0.16938     23.52864         0.005169      0.000935     -0.006754
      5.24366     -2.36238     21.16122        -0.001755     -0.003018     -0.008401
      3.44672     -1.11924     21.40555         0.004679     -0.005285     -0.006991
      7.38413      2.28998     21.27620        -0.006854      0.005751     -0.005336
      5.23068      3.14321     21.50544         0.014034     -0.001016      0.006293
    total drift:                               -0.159789     -0.183402     -0.182847

  FREE ENERGIE OF THE ION-ELECTRON SYSTEM (eV)
  free  energy   TOTEN  =      -772.72099809 eV

  energy  without entropy=     -772.69128382  energy(sigma->0) =     -772.70614095

 d Force = 0.1036980E-05[-0.397E-06, 0.247E-05]  d Energy =-0.4007539E-05 0.504E-05
 d Force = 0.1239691E+00[ 0.124E+00, 0.124E+00]  d Ewald  = 0.1239692E+00-0.619E-07

 reached required accuracy - stopping structural energy minimisation
 writing wavefunctions

 total charge

[...]

 magnetization (x)

# of ion       s       p       d       tot
    1       -0.000  -0.000   0.000  -0.000
    2       -0.000  -0.000   0.000  -0.000
    3       -0.000  -0.000   0.000  -0.000
    4       -0.000  -0.000   0.000  -0.000
    5       -0.000  -0.000   0.000  -0.000
    6       -0.000  -0.000   0.000  -0.000
    7       -0.000  -0.000   0.000  -0.000
    8       -0.000  -0.000   0.000  -0.000
    9       -0.000  -0.000   0.000  -0.000
   10       -0.000  -0.000   0.000  -0.000
   11       -0.000  -0.000   0.000  -0.000
   12       -0.000  -0.000   0.000  -0.000
   13       -0.000  -0.000   0.000  -0.000
   14       -0.000  -0.000   0.000  -0.000
   15       -0.000  -0.000   0.000  -0.000
   16       -0.000  -0.000   0.000  -0.000
   17       -0.000  -0.000   0.000  -0.000
   18       -0.000  -0.000   0.000  -0.000
   19       -0.000  -0.000   0.000  -0.000
   20       -0.000  -0.000   0.000  -0.000
   21       -0.000  -0.000   0.000  -0.000
   22       -0.000  -0.000   0.000  -0.000
   23       -0.000  -0.000   0.000  -0.000
   24       -0.000  -0.000   0.000  -0.000
   25       -0.000  -0.000   0.000  -0.000
   26       -0.000  -0.000   0.000  -0.000
   27       -0.000  -0.000   0.000  -0.000
   28       -0.000  -0.000   0.000  -0.000
   29       -0.000  -0.000   0.000  -0.000
   30       -0.000  -0.000   0.000  -0.000
   31       -0.000  -0.000   0.000  -0.000
   32       -0.000  -0.000   0.000  -0.000
   33       -0.000  -0.000   0.000  -0.000
   34       -0.000  -0.000   0.000  -0.000
   35       -0.000  -0.000   0.000  -0.000
   36       -0.000  -0.000   0.000  -0.000
   37        0.000   0.000   0.000   0.000
   38        0.000   0.000   0.000   0.000
   39        0.000   0.000   0.000   0.000
   40        0.000   0.000   0.000   0.000
   41        0.000   0.000   0.000   0.000
   42        0.000   0.000   0.000   0.000
   43        0.000   0.000   0.000   0.000
   44        0.000   0.000   0.000   0.000
   45        0.000   0.000   0.000   0.000
   46        0.000   0.000   0.000   0.000
   47        0.000   0.000   0.000   0.000
   48        0.000   0.000   0.000   0.000
   49        0.000   0.000   0.000   0.000
   50        0.000   0.000   0.000   0.000
   51        0.000   0.000   0.000   0.000
   52        0.000   0.000   0.000   0.000
   53        0.000   0.000   0.000   0.000
   54        0.000   0.000   0.000   0.000
   55        0.000   0.000   0.000   0.000
   56        0.000   0.000   0.000   0.000
   57        0.000   0.000   0.000   0.000
   58        0.000   0.000   0.000   0.000
   59        0.000   0.000   0.000   0.000
   60        0.000   0.000   0.000   0.000
[...]
   68        0.000   0.000   0.000   0.000
   69        0.000   0.000   0.000   0.000
   70        0.000   0.000   0.000   0.000
   71        0.000   0.000   0.000   0.000
   72        0.000   0.000   0.000   0.000
   73        0.004   0.011   0.000   0.015
   74        0.071   0.377   0.000   0.447
   75       -0.000   0.000   0.000   0.000
   76       -0.000  -0.000   0.000  -0.001
   77        0.001   0.030   0.000   0.031
   78       -0.000  -0.000   0.000  -0.001
   79        0.003   0.077   0.000   0.080
   80        0.003   0.077   0.000   0.080
   81        0.000   0.000   0.000   0.000
   82        0.000   0.000   0.000   0.000
tot          0.082   0.579   0.000   0.660