 vasp.5.4.4.18Apr17-6-g9f103f2a35 (build May 01 2020 14:57:12) complex

 executed on             LinuxIFC date 2020.10.15  07:06:34

 INCAR:
 POTCAR:    PAW_PBE B 06Sep2000
 POTCAR:    PAW_PBE N 08Apr2002
 POTCAR:    PAW_PBE C 08Apr2002
 POTCAR:    PAW_PBE F 08Apr2002
 POTCAR:    PAW_PBE O 08Apr2002

 POTCAR:    PAW_PBE B 06Sep2000
   VRHFIN =B: s2p1

   TITEL  = PAW_PBE B 06Sep2000
   POMASS =   10.811; ZVAL   =    3.000    mass and valenz
   ENMAX  =  318.614; ENMIN  =  238.960 eV

 POTCAR:    PAW_PBE N 08Apr2002
   VRHFIN =N: s2p3

   TITEL  = PAW_PBE N 08Apr2002
   POMASS =   14.001; ZVAL   =    5.000    mass and valenz
   ENMAX  =  400.000; ENMIN  =  300.000 eV

 POTCAR:    PAW_PBE C 08Apr2002
   VRHFIN =C: s2p2

[...]

 POTCAR:    PAW_PBE F 08Apr2002
   VRHFIN =F: s2p5

[...]

 POTCAR:    PAW_PBE O 08Apr2002
   VRHFIN =O: s2p4

   TITEL  = PAW_PBE O 08Apr2002
   POMASS =   16.000; ZVAL   =    6.000    mass and valenz
   ENMAX  =  400.000; ENMIN  =  300.000 eV

 Optimization of the real space projectors (new method)

 maximal supplied QI-value         = 22.11
 optimisation between [QCUT,QGAM] = [ 11.94, 23.88] = [ 39.92,159.67] Ry
 Optimized for a Real-space Cutoff    1.18 Angstroem

   l    n(q)    QCUT    max X(q) W(low)/X(q) W(high)/X(q)  e(spline)
   0      8    11.939    53.033    0.11E-03    0.34E-03    0.60E-07
   0      8    11.939    34.740    0.11E-03    0.34E-03    0.59E-07
   1      8    11.939    30.949    0.22E-03    0.20E-03    0.17E-06
   1      8    11.939    19.518    0.20E-03    0.18E-03    0.16E-06
 Optimization of the real space projectors (new method)

[...]

   l    n(q)    QCUT    max X(q) W(low)/X(q) W(high)/X(q)  e(spline)
   0      8    11.883    14.049    0.56E-04    0.86E-04    0.22E-06
   0      8    11.883     8.945    0.81E-04    0.11E-03    0.30E-06
   1      8    11.883     7.086    0.16E-03    0.15E-04    0.31E-06
   1      8    11.883     6.747    0.15E-03    0.14E-04    0.28E-06
 Optimization of the real space projectors (new method)

 maximal supplied QI-value         = 24.76
 optimisation between [QCUT,QGAM] = [ 11.88, 24.01] = [ 39.54,161.47] Ry
 Optimized for a Real-space Cutoff    1.18 Angstroem

   l    n(q)    QCUT    max X(q) W(low)/X(q) W(high)/X(q)  e(spline)
   0      8    11.883    20.381    0.86E-04    0.11E-03    0.31E-06
   0      8    11.883    15.268    0.94E-04    0.12E-03    0.33E-06
   1      8    11.883     5.964    0.19E-03    0.18E-04    0.33E-06
   1      8    11.883     5.382    0.17E-03    0.20E-04    0.29E-06
  PAW_PBE B 06Sep2000                   :
  PAW_PBE N 08Apr2002                   :
  PAW_PBE C 08Apr2002                   :
  PAW_PBE F 08Apr2002                   :
  PAW_PBE O 08Apr2002                   :

 POSCAR: B N C F O
  positions in direct lattice
  velocities in cartesian coordinates

 METAGGA = SCAN     LMAXTAU =  6    LMIXTAU =  F

 ion  position               nearest neighbor table
   1  0.111  0.056  0.500-  42 1.45  37 1.45  43 1.45
   2  0.111  0.222  0.500-  37 1.45  38 1.45  44 1.45
   3  0.111  0.389  0.500-  38 1.45  39 1.45  45 1.45
   4  0.111  0.556  0.500-  40 1.45  39 1.45  46 1.45
   5  0.111  0.722  0.500-  41 1.45  40 1.45  47 1.45
   6  0.111  0.889  0.500-  41 1.45  42 1.45  48 1.45
   7  0.278  0.056  0.500-  48 1.45  49 1.45  43 1.45
   8  0.278  0.222  0.500-  43 1.45  50 1.45  44 1.45
   9  0.278  0.389  0.500-  44 1.45  45 1.45  51 1.45
  10  0.278  0.556  0.500-  46 1.45  52 1.45  45 1.45
  11  0.278  0.722  0.500-  47 1.45  53 1.45  46 1.45
  12  0.278  0.889  0.500-  54 1.45  47 1.45  48 1.45
  13  0.444  0.056  0.500-  55 1.45  54 1.45  49 1.45
  14  0.444  0.222  0.500-  56 1.45  49 1.45  50 1.45
  15  0.444  0.389  0.500-  57 1.45  50 1.45  51 1.45
  16  0.444  0.556  0.500-  58 1.45  52 1.45  51 1.45
  17  0.444  0.722  0.500-  59 1.45  53 1.45  52 1.45
  18  0.444  0.889  0.500-  60 1.45  54 1.45  53 1.45
  19  0.611  0.056  0.500-  61 1.45  60 1.45  55 1.45
  20  0.611  0.222  0.500-  62 1.45  55 1.45  56 1.45
  21  0.611  0.389  0.500-  63 1.45  56 1.45  57 1.45
  22  0.611  0.556  0.500-  64 1.45  58 1.45  57 1.45
  23  0.611  0.722  0.500-  65 1.45  59 1.45  58 1.45
  24  0.611  0.889  0.500-  66 1.45  60 1.45  59 1.45
  25  0.778  0.056  0.500-  66 1.45  61 1.45  67 1.45
  26  0.778  0.222  0.500-  61 1.45  62 1.45  68 1.45
  27  0.778  0.389  0.500-  62 1.45  69 1.45  63 1.45
  28  0.778  0.556  0.500-  70 1.45  64 1.45  63 1.45
  29  0.778  0.722  0.500-  65 1.45  71 1.45  64 1.45
  30  0.778  0.889  0.500-  66 1.45  72 1.45  65 1.45
  31  0.944  0.056  0.500-  72 1.45  67 1.45  37 1.45
  32  0.944  0.222  0.500-  67 1.45  68 1.45  38 1.45
  33  0.944  0.389  0.500-  68 1.45  69 1.45  39 1.45
  34  0.944  0.556  0.500-  70 1.45  69 1.45  40 1.45
  35  0.944  0.722  0.500-  71 1.45  70 1.45  41 1.45
  36  0.944  0.889  0.500-  72 1.45  71 1.45  42 1.45
  37  0.056  0.111  0.500-   2 1.45   1 1.45  31 1.45
  38  0.056  0.278  0.500-   3 1.45   2 1.45  32 1.45
  39  0.056  0.445  0.500-   3 1.45   4 1.45  33 1.45
  40  0.056  0.611  0.500-   4 1.45   5 1.45  34 1.45
  41  0.056  0.778  0.500-   6 1.45   5 1.45  35 1.45
  42  0.056  0.945  0.500-   1 1.45   6 1.45  36 1.45
  43  0.222  0.111  0.500-   8 1.45   7 1.45   1 1.45
  44  0.222  0.278  0.500-   9 1.45   8 1.45   2 1.45
  45  0.222  0.445  0.500-   9 1.45  10 1.45   3 1.45
  46  0.222  0.611  0.500-  10 1.45  11 1.45   4 1.45
  47  0.222  0.778  0.500-  11 1.45  12 1.45   5 1.45
  48  0.222  0.945  0.500-   7 1.45  12 1.45   6 1.45
  49  0.389  0.111  0.500-  14 1.45   7 1.45  13 1.45
  50  0.389  0.278  0.501-   8 1.45  15 1.45  14 1.45
  51  0.389  0.445  0.500-   9 1.45  15 1.45  16 1.45
  52  0.389  0.611  0.500-  10 1.45  16 1.45  17 1.45
  53  0.389  0.778  0.500-  11 1.45  17 1.45  18 1.45
  54  0.389  0.945  0.500-  13 1.45  12 1.45  18 1.45
  55  0.556  0.111  0.500-  13 1.45  20 1.45  19 1.45
  56  0.556  0.278  0.500-  14 1.45  21 1.45  20 1.45
  57  0.556  0.445  0.500-  15 1.45  21 1.45  22 1.45
  58  0.556  0.611  0.500-  16 1.45  22 1.45  23 1.45
  59  0.556  0.778  0.500-  17 1.45  23 1.45  24 1.45
  60  0.556  0.945  0.500-  18 1.45  24 1.45  19 1.45
[...]
  68  0.889  0.278  0.500-  33 1.45  32 1.45  26 1.45
  69  0.889  0.445  0.500-  33 1.45  34 1.45  27 1.45
  70  0.889  0.611  0.500-  34 1.45  28 1.45  35 1.45
  71  0.889  0.778  0.500-  36 1.45  35 1.45  29 1.45
  72  0.889  0.945  0.500-  31 1.45  36 1.45  30 1.45
  73  0.377  0.298  0.659-  76 1.34  78 1.34  77 1.35  74 1.51
  74  0.362  0.267  0.617-  79 1.33  80 1.33  73 1.51
  75  0.314  0.522  0.609-  82 1.16  81 1.16
  76  0.467  0.385  0.663-  73 1.34
  77  0.377  0.227  0.682-  73 1.35
  78  0.301  0.314  0.670-  73 1.34
  79  0.438  0.258  0.603-  74 1.33
  80  0.272  0.186  0.610-  74 1.33
  81  0.402  0.578  0.606-  75 1.16
  82  0.227  0.467  0.612-  75 1.16

IMPORTANT INFORMATION: All symmetrisations will be switched off!
NOSYMM: (Re-)initialisation of all symmetry stuff for point group C_1.

 KPOINTS: K-Point Grid

Automatic generation of k-mesh.
Space group operators:
 irot       det(A)        alpha          n_x          n_y          n_z        tau_x        tau_y        tau_z
    1     1.000000     0.000000     1.000000     0.000000     0.000000     0.000000     0.000000     0.000000

 Subroutine IBZKPT returns following result:

 Found      5 irreducible k-points:

 Following reciprocal coordinates:
            Coordinates               Weight
  0.000000  0.000000  0.000000      1.000000
  0.333333  0.000000  0.000000      2.000000
  0.000000  0.333333  0.000000      2.000000
  0.333333  0.333333  0.000000      2.000000
 -0.333333  0.333333  0.000000      2.000000

 Following cartesian coordinates:
            Coordinates               Weight
  0.000000  0.000000  0.000000      1.000000
  0.022114 -0.012768  0.000000      2.000000
  0.022114  0.012768  0.000000      2.000000
  0.044229  0.000000  0.000000      2.000000
  0.000000  0.025535  0.000000      2.000000

 SYSTEM =  SiC
 POSCAR =  B N C F O

 Startparameter for this run:
   NWRITE =      2    write-flag & timer
   PREC   = accura    normal or accurate (medium, high low for compatibility)
   ISTART =      1    job   : 0-new  1-cont  2-samecut
   ICHARG =      0    charge: 1-file 2-atom 10-const
   ISPIN  =      2    spin polarized calculation?
   LNONCOLLINEAR =      F non collinear calculations
   LSORBIT =      F    spin-orbit coupling
   INIWAV =      1    electr: 0-lowe 1-rand  2-diag
   LASPH  =      T    aspherical Exc in radial PAW
   METAGGA=      F    non-selfconsistent MetaGGA calc.

 Electronic Relaxation 1
   ENCUT  =  550.0 eV  40.42 Ry    6.36 a.u.  28.82 28.82 67.15*2*pi/ulx,y,z
   ENINI  =  550.0     initial cutoff
   ENAUG  =  644.9 eV  augmentation charge cutoff
   NELM   =    100;   NELMIN=  2; NELMDL=  0     # of ELM steps
   EDIFF  = 0.1E-04   stopping-criterion for ELM
   LREAL  =      T    real-space projection
   NLSPLINE    = F    spline interpolate recip. space projectors
   LCOMPAT=      F    compatible to vasp.4.4
   GGA_COMPAT  = T    GGA compatible to vasp.4.4-vasp.4.6
   LMAXPAW     = -100 max onsite density
   LMAXMIX     =    2 max onsite mixed and CHGCAR
   VOSKOWN=      0    Vosko Wilk Nusair interpolation
   ROPT   =   -0.00025  -0.00025  -0.00025  -0.00025
   ROPT   =   -0.00025
 Ionic relaxation
   EDIFFG = -.2E-01   stopping-criterion for IOM
   NSW    =    500    number of steps for IOM
   NBLOCK =      1;   KBLOCK =    500    inner block; outer block
   IBRION =      2    ionic relax: 0-MD 1-quasi-New 2-CG
   NFREE  =      1    steps in history (QN), initial steepest desc. (CG)
   ISIF   =      2    stress and relaxation
   IWAVPR =     11    prediction:  0-non 1-charg 2-wave 3-comb
   ISYM   =      0    0-nonsym 1-usesym 2-fastsym
   LCORR  =      T    Harris-Foulkes like correction to forces

   POTIM  = 0.5000    time-step for ionic-motion
   TEIN   =    0.0    initial temperature
   TEBEG  =    0.0;   TEEND  =   0.0 temperature during run
   SMASS  =  -3.00    Nose mass-parameter (am)
   estimated Nose-frequenzy (Omega)   =  0.10E-29 period in steps =****** mass=  -0.519E-26a.u.
   SCALEE = 1.0000    scale energy and forces
   NPACO  =    256;   APACO  = 16.0  distance and # of slots for P.C.
   PSTRESS=    0.0 pullay stress

  Mass of Ions in am
   POMASS =  10.81 14.00 12.01 19.00 16.00
  Ionic Valenz
   ZVAL   =   3.00  5.00  4.00  7.00  6.00
  Atomic Wigner-Seitz radii
  virtual crystal weights
   VCA    =   1.00  1.00  1.00  1.00  1.00
   NELECT =     346.4000    total number of electrons
   NUPDOWN=      -1.0000    fix difference up-down

 DOS related values:
   EMIN   =  10.00;   EMAX   =-10.00  energy-range for DOS
   EFERMI =   0.00
   ISMEAR =     0;   SIGMA  =   0.05  broadening in eV -4-tet -1-fermi 0-gaus

 Electronic relaxation 2 (details)
   IALGO  =     68    algorithm
   LDIAG  =      T    sub-space diagonalisation (order eigenvalues)
   LSUBROT=      F    optimize rotation matrix (better conditioning)
   TURBO    =      0    0=normal 1=particle mesh
   IRESTART =      0    0=no restart 2=restart with 2 vectors
   NREBOOT  =      0    no. of reboots
   NMIN     =      0    reboot dimension
[...]
   -.302E+01 -.118E+01 0.432E+02   0.300E+01 0.119E+01 -.432E+02   -.182E-02 -.216E-03 -.333E-03   0.199E-03 -.133E-03 0.313E-03
   0.148E+02 -.538E+01 0.490E+02   -.148E+02 0.539E+01 -.490E+02   0.102E-02 -.852E-03 -.759E-03   0.126E-04 -.159E-03 0.212E-03
   0.133E+02 -.848E+01 0.498E+02   -.133E+02 0.850E+01 -.497E+02   0.154E-02 -.356E-02 -.130E-04   0.535E-04 0.760E-04 0.251E-04
   0.558E+01 -.785E+01 0.477E+02   -.560E+01 0.784E+01 -.476E+02   0.183E-02 -.259E-02 0.148E-03   0.809E-04 -.691E-04 0.813E-04
   -.130E+01 -.318E+01 0.438E+02   0.127E+01 0.318E+01 -.437E+02   -.923E-03 -.161E-02 -.866E-03   0.210E-03 0.695E-04 0.650E-04
   0.571E+00 0.840E+00 0.426E+02   -.587E+00 -.820E+00 -.425E+02   -.121E-02 0.404E-03 -.749E-03   0.133E-03 -.152E-03 0.199E-03
   0.892E+01 -.134E+00 0.454E+02   -.894E+01 0.154E+00 -.453E+02   -.945E-04 0.262E-04 0.227E-05   0.104E-03 -.132E-03 0.140E-03
   0.389E+02 -.123E+02 0.103E+03   -.390E+02 0.124E+02 -.103E+03   0.148E-01 -.527E-04 0.237E-01   -.135E-02 0.247E-04 0.192E-03
   0.317E+02 -.237E+02 0.104E+03   -.318E+02 0.237E+02 -.104E+03   0.114E-01 -.767E-02 0.146E-02   -.722E-03 0.997E-03 -.681E-03
   0.155E+02 -.278E+02 0.940E+02   -.156E+02 0.279E+02 -.939E+02   0.397E-02 -.120E-01 0.581E-02   -.438E-03 -.125E-03 0.369E-03
   0.402E+01 -.154E+02 0.769E+02   -.408E+01 0.154E+02 -.769E+02   -.230E-03 -.134E-01 0.125E-01   -.456E-03 0.715E-03 0.241E-03
   0.116E+02 0.360E+00 0.739E+02   -.117E+02 -.325E+00 -.739E+02   0.183E-02 -.470E-02 0.159E-01   -.561E-03 0.120E-03 0.200E-03
   0.303E+02 0.259E+01 0.872E+02   -.304E+02 -.257E+01 -.871E+02   0.884E-02 -.582E-03 -.555E-02   -.755E-03 0.446E-03 -.120E-02
   0.428E+02 0.902E+01 0.138E+03   -.429E+02 -.905E+01 -.138E+03   0.181E-01 0.999E-02 0.142E-01   0.301E-03 -.256E-03 0.148E-02
   0.295E+02 -.189E+02 0.149E+03   -.297E+02 0.189E+02 -.149E+03   0.207E-01 -.525E-02 -.183E-01   0.619E-03 -.490E-03 -.412E-03
   0.140E+02 -.316E+02 0.142E+03   -.142E+02 0.318E+02 -.142E+03   0.134E-01 -.180E-01 0.400E-01   0.150E-02 0.252E-03 0.333E-02
   -.166E+01 -.347E+02 0.105E+03   0.160E+01 0.348E+02 -.105E+03   -.435E-02 -.288E-01 -.863E-02   0.336E-03 -.157E-02 0.561E-03
   0.575E+01 -.767E+01 0.807E+02   -.574E+01 0.773E+01 -.808E+02   -.148E-02 -.132E-01 0.106E-01   -.979E-04 0.251E-03 -.165E-04
   0.276E+02 0.159E+02 0.949E+02   -.276E+02 -.159E+02 -.949E+02   0.970E-02 0.116E-02 0.156E-01   -.170E-03 0.156E-03 -.992E-03
   0.171E+02 0.390E+02 0.128E+03   -.171E+02 -.391E+02 -.128E+03   0.751E-02 0.732E-02 -.254E-01   0.231E-03 0.643E-03 -.959E-03
   -.215E+01 0.143E+02 0.171E+03   0.214E+01 -.144E+02 -.171E+03   -.253E-02 0.146E-01 -.360E-01   -.257E-03 -.485E-03 0.203E-02
   -.186E+02 -.659E+01 0.157E+03   0.187E+02 0.656E+01 -.157E+03   -.154E-01 0.189E-02 -.278E-01   0.555E-03 0.105E-02 -.209E-03
   -.275E+02 -.237E+02 0.135E+03   0.277E+02 0.236E+02 -.135E+03   -.299E-01 -.507E-02 0.400E-01   -.154E-03 -.667E-04 0.372E-02
   -.152E+02 -.156E+02 0.911E+02   0.153E+02 0.155E+02 -.911E+02   -.756E-02 -.552E-02 0.124E-01   -.180E-04 -.152E-02 0.132E-02
   0.587E+01 0.158E+02 0.869E+02   -.584E+01 -.158E+02 -.869E+02   0.149E-02 0.152E-02 0.234E-01   0.899E-04 -.460E-03 -.211E-03
   -.325E+01 0.304E+02 0.903E+02   0.327E+01 -.304E+02 -.902E+02   -.324E-02 0.469E-02 0.326E-02   0.297E-03 -.730E-03 -.103E-02
   -.215E+02 0.389E+02 0.125E+03   0.215E+02 -.390E+02 -.125E+03   -.132E-01 0.827E-02 -.105E-01   -.521E-03 0.153E-03 -.749E-04
   -.407E+02 0.163E+02 0.130E+03   0.408E+02 -.164E+02 -.130E+03   -.213E-01 0.114E-01 0.139E-01   -.365E-03 0.352E-04 -.317E-03
   -.420E+02 0.184E+01 0.115E+03   0.421E+02 -.181E+01 -.115E+03   -.241E-01 0.174E-02 -.488E-02   -.154E-04 0.154E-02 -.304E-03
   -.299E+02 -.781E+01 0.905E+02   0.299E+02 0.773E+01 -.903E+02   -.110E-01 0.273E-02 -.183E-02   -.399E-03 0.339E-04 0.336E-03
   -.976E+01 0.534E+01 0.763E+02   0.979E+01 -.538E+01 -.762E+02   -.705E-02 -.130E-02 0.228E-02   0.350E-03 -.773E-03 -.137E-03
[...]
   -.259E+01 -.224E+01 0.751E+02   0.258E+01 0.223E+01 -.751E+02   -.196E-02 -.533E-02 0.482E-02   -.230E-03 0.831E-04 -.640E-03
   -.862E+01 0.238E+01 0.726E+02   0.861E+01 -.236E+01 -.726E+02   -.328E-02 -.537E-02 0.172E-01   0.861E-04 0.806E-04 0.468E-03
   -.681E+00 0.216E+01 0.720E+02   0.662E+00 -.213E+01 -.719E+02   -.871E-03 -.312E-02 -.112E-02   -.191E-03 0.273E-03 0.307E-03
   0.123E+02 -.355E+01 0.747E+02   -.123E+02 0.357E+01 -.747E+02   0.176E-02 -.397E-02 0.198E-01   -.447E-03 0.324E-03 0.114E-02
   -.209E+00 0.152E+02 -.374E+03   -.233E+01 -.174E+02 0.367E+03   0.250E+01 0.199E+01 0.827E+01   -.145E-02 -.139E-02 0.862E-03
   -.460E+02 -.774E+02 -.264E+03   0.541E+02 0.886E+02 0.267E+03   -.835E+01 -.117E+02 -.199E+01   -.983E-03 0.208E-03 0.491E-03
   -.326E+02 -.865E+02 -.372E+03   0.325E+02 0.865E+02 0.373E+03   -.167E-01 -.382E-01 -.702E-01   0.152E-02 -.127E-02 -.132E-02
   -.541E+03 0.431E+02 -.783E+03   0.600E+03 -.452E+02 0.793E+03   -.577E+02 0.167E+01 -.745E+01   0.182E-02 -.289E-02 0.849E-02
   0.202E+03 0.380E+03 -.102E+04   -.224E+03 -.419E+03 0.106E+04   0.222E+02 0.387E+02 -.340E+02   0.152E-03 -.322E-02 0.136E-01
   0.181E+03 -.428E+03 -.889E+03   -.202E+03 0.481E+03 0.909E+03   0.195E+02 -.518E+02 -.179E+02   -.507E-02 -.286E-02 0.819E-02
   -.166E+03 0.395E+03 -.393E+03   0.190E+03 -.445E+03 0.370E+03   -.228E+02 0.488E+02 0.240E+02   -.310E-02 0.730E-02 0.292E-02
   0.474E+03 -.315E+02 -.471E+03   -.533E+03 0.380E+02 0.459E+03   0.572E+02 -.649E+01 0.131E+02   0.412E-02 0.268E-02 0.605E-02
   -.329E+03 -.650E+00 -.534E+03   0.394E+03 -.250E+02 0.528E+03   -.614E+02 0.244E+02 0.668E+01   -.222E-02 0.739E-04 0.490E-02
   0.244E+03 -.233E+03 -.587E+03   -.309E+03 0.258E+03 0.595E+03   0.615E+02 -.243E+02 -.638E+01   -.113E-02 -.342E-02 -.842E-02
   -.126E+02 -.214E+02 0.153E+02   -.341E-12 0.227E-12 -.341E-12   0.125E+02 0.212E+02 -.155E+02   -.685E-02 -.602E-02 0.528E-01

 POSITION                                       TOTAL-FORCE (eV/Angst)
      1.25663     -0.72436     17.56973        -0.001410     -0.000437     -0.000055
      2.51262      1.45128     17.57062        -0.002293      0.001638     -0.000833
      3.76876      3.62700     17.56935         0.002026     -0.001366     -0.000921
      5.02501      5.80267     17.56788        -0.000952      0.000461     -0.002646
      6.28121      7.97823     17.56664        -0.001491      0.000954      0.001806
      7.53726     10.15377     17.56801        -0.002721      0.002025     -0.000444
      2.51273     -2.90016     17.57153         0.003083      0.001587     -0.001657
      3.76863     -0.72442     17.57324         0.004441     -0.004762      0.001244
      5.02484      1.45113     17.57176         0.004121      0.002758     -0.003398
      6.28122      3.62737     17.56599         0.005423     -0.007076      0.000949
      7.53741      5.80275     17.56754         0.001794     -0.003363     -0.003602
      8.79339      7.97821     17.56774         0.001918     -0.002849      0.002099
      3.76898     -5.07581     17.57036         0.002215     -0.001279     -0.001004
      5.02501     -2.90041     17.57398         0.002026      0.003029      0.002271
      6.28132     -0.72459     17.57511        -0.001671     -0.000733     -0.001563
      7.53751      1.45120     17.57032         0.003110      0.004142     -0.001044
      8.79357      3.62709     17.56813        -0.002762     -0.008981     -0.001366
     10.04950      5.80253     17.56767         0.004402     -0.002744      0.001414
      5.02513     -7.25126     17.56793         0.001584     -0.003919      0.000678
      6.28113     -5.07580     17.57007         0.002155     -0.000624     -0.000101
      7.53728     -2.90015     17.57160         0.000887     -0.001845     -0.000627
      8.79342     -0.72445     17.57022         0.002451      0.001462      0.000167
     10.04949      1.45127     17.56879         0.002239      0.001518     -0.000804
     11.30557      3.62694     17.56822         0.001726     -0.003193     -0.001472
      6.28122     -9.42685     17.56757        -0.002941      0.000418     -0.000079
      7.53735     -7.25125     17.56738        -0.003655     -0.000605      0.001154
      8.79339     -5.07563     17.56820        -0.001936     -0.000642     -0.000388
     10.04948     -2.90004     17.56778        -0.000812      0.002950      0.001029
     11.30559     -0.72436     17.56743        -0.001234      0.003096      0.000047
     12.56165      1.45126     17.56734        -0.001785      0.003317      0.001387
      7.53724    -11.60246     17.56784        -0.006274      0.004038      0.000503
      8.79337     -9.42682     17.56839        -0.006711      0.001494     -0.000794
     10.04946     -7.25119     17.56783        -0.004520      0.001436      0.000857
     11.30559     -5.07552     17.56696        -0.003831      0.000587      0.000610
     12.56167     -2.89996     17.56675        -0.003030      0.003988      0.000522
     13.81772     -0.72434     17.56753        -0.004003      0.003893      0.000042
      1.25667      0.72604     17.56878         0.008020     -0.001245      0.003151
      2.51290      2.90168     17.56952         0.004156     -0.003829      0.000781
      3.76900      5.07724     17.56828         0.003813      0.000941      0.001137
      5.02508      7.25304     17.56678         0.003036     -0.004176      0.001419
      6.28115      9.42862     17.56656         0.003572     -0.001444      0.000681
      7.53719     11.60424     17.56850         0.004815     -0.003313     -0.002023
      2.51293     -1.44963     17.57158        -0.004403      0.000768      0.004661
      3.76898      0.72593     17.57331        -0.002607      0.003232      0.000243
      5.02535      2.90165     17.56918        -0.007714     -0.001069      0.005849
      6.28125      5.07734     17.56762        -0.001937      0.007130     -0.003510
      7.53734      7.25305     17.56696        -0.001336     -0.002392      0.000425
      8.79336      9.42856     17.56864         0.000271      0.000526      0.001302
      3.76904     -3.62518     17.57322        -0.004941     -0.003530      0.000221
      5.02494     -1.44969     17.57682         0.000099      0.005145      0.004245
      6.28118      0.72613     17.57494        -0.003855     -0.004072      0.001692
      7.53710      2.90170     17.56752         0.000486      0.002516      0.002678
      8.79340      5.07724     17.56755        -0.002957      0.006727      0.001679
     10.04948      7.25286     17.56787        -0.001990      0.004308      0.002099
      5.02511     -5.80093     17.56933        -0.002433      0.004761     -0.000306
      6.28107     -3.62521     17.57257         0.001208     -0.001751      0.002241
      7.53716     -1.44964     17.57245         0.001343      0.002122      0.005387
      8.79330      0.72615     17.57003        -0.001300     -0.006137      0.000286
     10.04938      2.90168     17.56847         0.000716      0.001635      0.000875
     11.30561      5.07728     17.56778        -0.003658      0.002613     -0.000705
[...]
      8.79336     -7.97643     17.56753         0.005040     -0.000696     -0.000116
     10.04945     -5.80079     17.56740         0.003432     -0.000745     -0.000907
     11.30552     -3.62512     17.56654         0.002856     -0.002074      0.000925
     12.56159     -1.44948     17.56713         0.003919     -0.003540     -0.001586
     13.81767      0.72615     17.56691         0.004401     -0.003954      0.001877
      5.08966     -1.02621     23.12589        -0.003496     -0.003866     -0.010042
      4.73850     -1.24941     21.67712         0.002865     -0.012303      0.001113
      6.30841      2.71823     21.39431        -0.014073      0.008029     -0.002318
      6.42039     -1.06823     23.28634        -0.000582      0.008275     -0.000371
      4.54833     -1.96587     23.93596        -0.004370     -0.002614     -0.000281
      4.63369      0.16929     23.52882         0.007619      0.003752     -0.001634
      5.24373     -2.36228     21.16158        -0.002650     -0.000018     -0.008028
      3.44699     -1.11911     21.40595        -0.007792     -0.002091     -0.009855
      7.38388      2.28998     21.27647         0.017806     -0.004830     -0.005458
      5.23067      3.14306     21.50521         0.003085      0.002682      0.005289
    total drift:                               -0.158172     -0.183780     -0.150291

  FREE ENERGIE OF THE ION-ELECTRON SYSTEM (eV)
  free  energy   TOTEN  =      -775.97665323 eV

  energy  without entropy=     -775.96528398  energy(sigma->0) =     -775.97096860

 d Force = 0.1335302E-04[ 0.116E-04, 0.151E-04]  d Energy = 0.1556708E-04-0.221E-05
 d Force =-0.6818898E+00[-0.682E+00,-0.682E+00]  d Ewald  =-0.6818897E+00-0.779E-07

 Conjugate gradient step on ions:
 trial-energy change:   -0.000016  1 .order   -0.000013   -0.000015   -0.000012
  (g-gl).g = 0.231E-03      g.g   = 0.192E-03  gl.gl    = 0.562E-03
 g(Force)  = 0.192E-03   g(Stress)= 0.000E+00 ortho     = 0.100E-04
 gamma     =   0.41084
 trial     =   0.07701
 opt step  =   0.30802  (harmonic =   0.32691) maximal distance =0.00058190
 next E    =  -775.976670   (d E  =  -0.00003)

 reached required accuracy - stopping structural energy minimisation
 writing wavefunctions

 total charge

[...]

 magnetization (x)

# of ion       s       p       d       tot
    1        0.000   0.000   0.000   0.000
    2       -0.000  -0.000   0.000  -0.000
    3        0.000   0.000   0.000   0.000
    4        0.000   0.000   0.000   0.000
    5        0.000   0.000   0.000   0.000
    6        0.000   0.000   0.000   0.000
    7        0.000   0.000   0.000   0.000
    8       -0.000   0.000   0.000   0.000
    9        0.000   0.000   0.000   0.000
   10        0.000  -0.000   0.000  -0.000
   11        0.000   0.000   0.000   0.000
   12        0.000   0.000   0.000   0.000
   13        0.000   0.000   0.000   0.000
   14       -0.000   0.000   0.000   0.000
   15        0.000   0.000   0.000   0.000
   16       -0.000   0.000   0.000   0.000
   17       -0.000   0.000   0.000   0.000
   18        0.000   0.000   0.000   0.000
   19        0.000   0.000   0.000   0.000
   20        0.000   0.000   0.000   0.000
   21        0.000  -0.000   0.000  -0.000
   22        0.000  -0.000   0.000  -0.000
   23       -0.000  -0.000   0.000  -0.000
   24        0.000   0.000   0.000   0.000
   25        0.000   0.000   0.000   0.000
   26        0.000   0.000   0.000   0.000
   27        0.000   0.000   0.000   0.000
   28        0.000   0.000   0.000   0.000
   29        0.000   0.000   0.000   0.000
   30        0.000   0.000   0.000   0.000
   31        0.000   0.000   0.000   0.000
   32        0.000   0.000   0.000   0.000
   33        0.000   0.000   0.000   0.000
   34        0.000   0.000   0.000   0.000
   35        0.000   0.000   0.000   0.000
   36        0.000   0.000   0.000   0.000
   37        0.000   0.000   0.000   0.000
   38       -0.000  -0.000   0.000  -0.000
   39        0.000  -0.000   0.000  -0.000
   40       -0.000  -0.000   0.000  -0.000
   41       -0.000  -0.000   0.000  -0.000
   42        0.000  -0.000   0.000  -0.000
   43       -0.000  -0.000   0.000  -0.000
   44       -0.000  -0.000   0.000  -0.000
   45       -0.000  -0.000   0.000  -0.000
   46        0.000  -0.000   0.000  -0.000
   47        0.000  -0.000   0.000  -0.000
   48        0.000  -0.000   0.000  -0.000
   49       -0.000  -0.000   0.000  -0.000
   50       -0.000  -0.000   0.000  -0.000
   51        0.000   0.000   0.000   0.000
   52        0.000   0.000   0.000   0.000
   53       -0.000  -0.000   0.000  -0.000
   54       -0.000  -0.000   0.000  -0.000
   55        0.000   0.000   0.000   0.000
   56        0.000   0.000   0.000   0.000
   57       -0.000  -0.000   0.000  -0.000
   58       -0.000  -0.000   0.000  -0.000
   59        0.000  -0.000   0.000  -0.000
   60        0.000  -0.000   0.000  -0.000
[...]
   68       -0.000  -0.000   0.000  -0.000
   69       -0.000  -0.000   0.000  -0.000
   70       -0.000  -0.000   0.000  -0.000
   71        0.000  -0.000   0.000  -0.000
   72       -0.000  -0.000   0.000  -0.000
   73        0.004   0.011   0.000   0.015
   74        0.071   0.377   0.000   0.447
   75       -0.000   0.000   0.000   0.000
   76       -0.000  -0.000   0.000  -0.001
   77        0.001   0.030   0.000   0.031
   78       -0.000  -0.000   0.000  -0.001
   79        0.003   0.077   0.000   0.080
   80        0.003   0.077   0.000   0.080
   81        0.000   0.000   0.000   0.000
   82        0.000  -0.000   0.000   0.000
tot          0.082   0.570   0.000   0.652