 vasp.5.4.4.18Apr17-6-g9f103f2a35 (build May 01 2020 14:57:12) complex

 executed on             LinuxIFC date 2021.08.07  23:08:14

 INCAR:
 POTCAR:    PAW_PBE B 06Sep2000
 POTCAR:    PAW_PBE N 08Apr2002
 POTCAR:    PAW_PBE C 08Apr2002
 POTCAR:    PAW_PBE F 08Apr2002
 POTCAR:    PAW_PBE O 08Apr2002

 POTCAR:    PAW_PBE B 06Sep2000
   VRHFIN =B: s2p1

   TITEL  = PAW_PBE B 06Sep2000
   POMASS =   10.811; ZVAL   =    3.000    mass and valenz
   ENMAX  =  318.614; ENMIN  =  238.960 eV

 POTCAR:    PAW_PBE N 08Apr2002
   VRHFIN =N: s2p3

   TITEL  = PAW_PBE N 08Apr2002
   POMASS =   14.001; ZVAL   =    5.000    mass and valenz
   ENMAX  =  400.000; ENMIN  =  300.000 eV

 POTCAR:    PAW_PBE C 08Apr2002
   VRHFIN =C: s2p2

[...]

 POTCAR:    PAW_PBE F 08Apr2002
   VRHFIN =F: s2p5

[...]

 POTCAR:    PAW_PBE O 08Apr2002
   VRHFIN =O: s2p4

   TITEL  = PAW_PBE O 08Apr2002
   POMASS =   16.000; ZVAL   =    6.000    mass and valenz
   ENMAX  =  400.000; ENMIN  =  300.000 eV

 Optimization of the real space projectors (new method)

 maximal supplied QI-value         = 22.11
 optimisation between [QCUT,QGAM] = [ 11.94, 23.88] = [ 39.92,159.67] Ry
 Optimized for a Real-space Cutoff    1.18 Angstroem

   l    n(q)    QCUT    max X(q) W(low)/X(q) W(high)/X(q)  e(spline)
   0      8    11.939    53.033    0.11E-03    0.34E-03    0.60E-07
   0      8    11.939    34.740    0.11E-03    0.34E-03    0.59E-07
   1      8    11.939    30.949    0.22E-03    0.20E-03    0.17E-06
   1      8    11.939    19.518    0.20E-03    0.18E-03    0.16E-06
 Optimization of the real space projectors (new method)

[...]

   l    n(q)    QCUT    max X(q) W(low)/X(q) W(high)/X(q)  e(spline)
   0      8    11.883    14.049    0.56E-04    0.86E-04    0.22E-06
   0      8    11.883     8.945    0.81E-04    0.11E-03    0.30E-06
   1      8    11.883     7.086    0.16E-03    0.15E-04    0.31E-06
   1      8    11.883     6.747    0.15E-03    0.14E-04    0.28E-06
 Optimization of the real space projectors (new method)

 maximal supplied QI-value         = 24.76
 optimisation between [QCUT,QGAM] = [ 11.88, 24.01] = [ 39.54,161.47] Ry
 Optimized for a Real-space Cutoff    1.18 Angstroem

   l    n(q)    QCUT    max X(q) W(low)/X(q) W(high)/X(q)  e(spline)
   0      8    11.883    20.381    0.86E-04    0.11E-03    0.31E-06
   0      8    11.883    15.268    0.94E-04    0.12E-03    0.33E-06
   1      8    11.883     5.964    0.19E-03    0.18E-04    0.33E-06
   1      8    11.883     5.382    0.17E-03    0.20E-04    0.29E-06
  PAW_PBE B 06Sep2000                   :
  PAW_PBE N 08Apr2002                   :
  PAW_PBE C 08Apr2002                   :
  PAW_PBE F 08Apr2002                   :
  PAW_PBE O 08Apr2002                   :

 POSCAR: B N C F O
  positions in direct lattice
  velocities in cartesian coordinates

 METAGGA = SCAN     LMAXTAU =  6    LMIXTAU =  F

 ion  position               nearest neighbor table
   1  0.114  0.057  0.495-  37 1.45  42 1.45  43 1.45
   2  0.114  0.224  0.495-  38 1.45  44 1.45  37 1.45
   3  0.114  0.390  0.495-  45 1.45  39 1.45  38 1.45
   4  0.114  0.557  0.495-  46 1.45  39 1.45  40 1.45
   5  0.114  0.724  0.495-  47 1.45  40 1.45  41 1.45
   6  0.114  0.890  0.495-  41 1.45  48 1.45  42 1.45
   7  0.281  0.057  0.495-  48 1.45  49 1.45  43 1.45
   8  0.281  0.224  0.495-  44 1.45  50 1.45  43 1.45
   9  0.281  0.390  0.495-  45 1.45  51 1.45  44 1.45
  10  0.281  0.557  0.495-  46 1.45  52 1.45  45 1.45
  11  0.281  0.724  0.495-  46 1.45  53 1.45  47 1.45
  12  0.281  0.890  0.495-  47 1.45  54 1.45  48 1.45
  13  0.447  0.057  0.495-  54 1.45  55 1.45  49 1.45
  14  0.447  0.224  0.495-  56 1.45  50 1.45  49 1.45
  15  0.447  0.390  0.495-  51 1.45  57 1.45  50 1.45
  16  0.447  0.557  0.494-  52 1.45  51 1.45  58 1.45
  17  0.447  0.724  0.495-  52 1.45  53 1.45  59 1.45
  18  0.447  0.890  0.495-  53 1.45  54 1.45  60 1.45
  19  0.614  0.057  0.495-  60 1.45  55 1.45  61 1.45
  20  0.614  0.224  0.495-  56 1.45  55 1.45  62 1.45
  21  0.614  0.390  0.494-  57 1.45  63 1.45  56 1.45
  22  0.614  0.557  0.494-  58 1.45  57 1.45  64 1.45
  23  0.614  0.724  0.494-  58 1.45  59 1.45  65 1.45
  24  0.614  0.890  0.495-  59 1.45  60 1.45  66 1.45
  25  0.781  0.057  0.495-  66 1.45  61 1.45  67 1.45
  26  0.781  0.224  0.495-  61 1.45  68 1.45  62 1.45
  27  0.781  0.390  0.495-  63 1.45  69 1.45  62 1.45
  28  0.781  0.557  0.495-  64 1.45  63 1.45  70 1.45
  29  0.781  0.724  0.495-  64 1.45  65 1.45  71 1.45
  30  0.781  0.890  0.495-  65 1.45  66 1.45  72 1.45
  31  0.947  0.057  0.495-  72 1.45  67 1.45  37 1.45
  32  0.947  0.224  0.495-  38 1.45  68 1.45  67 1.45
  33  0.947  0.390  0.495-  39 1.45  68 1.45  69 1.45
  34  0.947  0.557  0.495-  40 1.45  70 1.45  69 1.45
  35  0.947  0.724  0.495-  70 1.45  71 1.45  41 1.45
  36  0.947  0.890  0.495-  71 1.45  72 1.45  42 1.45
  37  0.059  0.113  0.495-   1 1.45  31 1.45   2 1.45
  38  0.058  0.279  0.495-   2 1.45  32 1.45   3 1.45
  39  0.058  0.446  0.495-  33 1.45   3 1.45   4 1.45
  40  0.059  0.613  0.495-  34 1.45   5 1.45   4 1.45
  41  0.059  0.779  0.495-   6 1.45  35 1.45   5 1.45
  42  0.059  0.946  0.495-   1 1.45   6 1.45  36 1.45
  43  0.225  0.113  0.495-   1 1.45   7 1.45   8 1.45
  44  0.225  0.279  0.495-   8 1.45   2 1.45   9 1.45
  45  0.225  0.446  0.495-   3 1.45   9 1.45  10 1.45
  46  0.225  0.613  0.494-   4 1.45  11 1.45  10 1.45
  47  0.225  0.779  0.495-  12 1.45   5 1.45  11 1.45
  48  0.225  0.946  0.495-   6 1.45   7 1.45  12 1.45
  49  0.392  0.113  0.495-   7 1.45  14 1.45  13 1.45
  50  0.392  0.279  0.495-  14 1.45   8 1.45  15 1.45
  51  0.392  0.446  0.494-  15 1.45   9 1.45  16 1.45
  52  0.392  0.613  0.494-  17 1.45  16 1.45  10 1.45
  53  0.392  0.779  0.495-  18 1.45  17 1.45  11 1.45
  54  0.392  0.946  0.495-  13 1.45  12 1.45  18 1.45
  55  0.559  0.113  0.495-  20 1.45  19 1.45  13 1.45
  56  0.559  0.279  0.495-  20 1.45  14 1.45  21 1.45
  57  0.559  0.446  0.494-  21 1.45  15 1.45  22 1.45
  58  0.559  0.613  0.493-  22 1.45  23 1.45  16 1.45
  59  0.559  0.779  0.495-  24 1.45  23 1.45  17 1.45
  60  0.559  0.946  0.495-  19 1.45  24 1.45  18 1.45
[...]
  77  0.386  0.556  0.622-  88 1.37  89 1.38  76 1.54  78 1.56
  78  0.363  0.640  0.607-  91 1.24  90 1.25  77 1.56
  79  0.583  0.340  0.639-  73 1.34
  80  0.602  0.362  0.577-  73 1.34
  81  0.735  0.440  0.615-  73 1.34
  82  0.665  0.550  0.648-  74 1.35
  83  0.670  0.566  0.585-  74 1.36
  84  0.458  0.413  0.586-  75 1.36
  85  0.463  0.430  0.648-  75 1.36
  86  0.566  0.649  0.633-  76 1.36
  87  0.513  0.605  0.574-  76 1.36
  88  0.317  0.460  0.608-  77 1.37
  89  0.379  0.551  0.661-  77 1.38
  90  0.435  0.729  0.612-  78 1.25
  91  0.275  0.607  0.594-  78 1.24

  LATTYP: Found a hexagonal cell.
 ALAT       =    15.0731507304
 C/A-ratio  =     2.3296167479

  Lattice vectors:

 A1 = (   7.5365500567, -13.0537460594,   0.0000000000)
 A2 = (   7.5365500567,  13.0537460594,   0.0000000000)
 A3 = (   0.0000000000,   0.0000000000,  35.1146643856)

Analysis of symmetry for initial positions (statically):
 Subroutine PRICEL returns:
 Original cell was already a primitive cell.

 Routine SETGRP: Setting up the symmetry group for a
 hexagonal supercell.

 Subroutine GETGRP returns: Found  1 space group operations
 (whereof  1 operations were pure point group operations)
 out of a pool of 24 trial point group operations.

The static configuration has the point symmetry C_1 .

Analysis of symmetry for dynamics (positions and initial velocities):
 Subroutine PRICEL returns:
 Original cell was already a primitive cell.

[...]

The dynamic configuration has the point symmetry C_1 .

Analysis of constrained symmetry for selective dynamics:
 Subroutine PRICEL returns:
 Original cell was already a primitive cell.

[...]

The constrained configuration has the point symmetry C_1 .

Analysis of structural, dynamic, and magnetic symmetry:
 Subroutine PRICEL returns:
 Original cell was already a primitive cell.

 Routine SETGRP: Setting up the symmetry group for a
 hexagonal supercell.

 Subroutine GETGRP returns: Found  1 space group operations
 (whereof  1 operations were pure point group operations)
 out of a pool of 24 trial point group operations.

The magnetic configuration has the point symmetry C_1 .

 Subroutine INISYM returns: Found  1 space group operations
 (whereof  1 operations are pure point group operations),
 and found     1 'primitive' translations

 KPOINTS: K-Point Grid

Automatic generation of k-mesh.
Space group operators:
 irot       det(A)        alpha          n_x          n_y          n_z        tau_x        tau_y        tau_z
    1     1.000000     0.000000     1.000000     0.000000     0.000000     0.000000     0.000000     0.000000

 Subroutine IBZKPT returns following result:

 Found      5 irreducible k-points:

 Following reciprocal coordinates:
            Coordinates               Weight
  0.000000  0.000000  0.000000      1.000000
  0.333333  0.000000  0.000000      2.000000
  0.000000  0.333333  0.000000      2.000000
  0.333333  0.333333  0.000000      2.000000
 -0.333333  0.333333  0.000000      2.000000

 Following cartesian coordinates:
            Coordinates               Weight
  0.000000  0.000000  0.000000      1.000000
  0.022114 -0.012768  0.000000      2.000000
  0.022114  0.012768  0.000000      2.000000
  0.044229  0.000000  0.000000      2.000000
  0.000000  0.025535  0.000000      2.000000

 SYSTEM =  SiC
 POSCAR =  B N C F O

 Startparameter for this run:
   NWRITE =      2    write-flag & timer
   PREC   = accura    normal or accurate (medium, high low for compatibility)
   ISTART =      1    job   : 0-new  1-cont  2-samecut
   ICHARG =      0    charge: 1-file 2-atom 10-const
   ISPIN  =      2    spin polarized calculation?
   LNONCOLLINEAR =      F non collinear calculations
   LSORBIT =      F    spin-orbit coupling
   INIWAV =      1    electr: 0-lowe 1-rand  2-diag
   LASPH  =      T    aspherical Exc in radial PAW
   METAGGA=      F    non-selfconsistent MetaGGA calc.

 Electronic Relaxation 1
   ENCUT  =  550.0 eV  40.42 Ry    6.36 a.u.  28.82 28.82 67.15*2*pi/ulx,y,z
   ENINI  =  550.0     initial cutoff
   ENAUG  =  644.9 eV  augmentation charge cutoff
   NELM   =    100;   NELMIN=  2; NELMDL=  0     # of ELM steps
   EDIFF  = 0.1E-04   stopping-criterion for ELM
   LREAL  =      T    real-space projection
   NLSPLINE    = F    spline interpolate recip. space projectors
   LCOMPAT=      F    compatible to vasp.4.4
   GGA_COMPAT  = T    GGA compatible to vasp.4.4-vasp.4.6
   LMAXPAW     = -100 max onsite density
   LMAXMIX     =    2 max onsite mixed and CHGCAR
   VOSKOWN=      0    Vosko Wilk Nusair interpolation
   ROPT   =   -0.00025  -0.00025  -0.00025  -0.00025
   ROPT   =   -0.00025
 Ionic relaxation
   EDIFFG = -.2E-01   stopping-criterion for IOM
   NSW    =    500    number of steps for IOM
   NBLOCK =      1;   KBLOCK =    500    inner block; outer block
   IBRION =      2    ionic relax: 0-MD 1-quasi-New 2-CG
   NFREE  =      1    steps in history (QN), initial steepest desc. (CG)
   ISIF   =      2    stress and relaxation
[...]
   0.229E+01 0.244E+02 0.898E+02   -.227E+01 -.245E+02 -.891E+02   -.311E-02 0.389E-02 0.449E-02   0.242E-03 0.536E-03 -.928E-03
   -.113E+02 0.459E+02 0.127E+03   0.114E+02 -.459E+02 -.126E+03   -.629E-02 -.295E-02 0.566E-02   -.317E-03 0.315E-03 -.976E-03
   -.459E+02 0.327E+02 0.153E+03   0.460E+02 -.326E+02 -.153E+03   0.315E-02 -.127E-01 -.257E-02   -.628E-03 0.101E-03 -.593E-03
   -.606E+02 0.314E+01 0.135E+03   0.605E+02 -.296E+01 -.134E+03   0.136E-01 -.228E-02 0.282E-02   0.380E-03 0.627E-03 -.508E-03
   -.414E+02 -.833E+01 0.989E+02   0.411E+02 0.849E+01 -.981E+02   0.809E-02 -.689E-03 0.312E-02   -.482E-03 0.410E-04 -.876E-03
   -.215E+01 -.105E+01 0.782E+02   0.215E+01 0.112E+01 -.775E+02   -.237E-02 0.208E-03 0.748E-03   -.499E-03 0.161E-04 -.547E-03
   0.134E+02 0.332E+01 0.815E+02   -.131E+02 -.329E+01 -.808E+02   -.959E-02 0.387E-02 0.331E-02   0.361E-03 -.262E-03 -.893E-03
   0.686E+01 0.111E+02 0.931E+02   -.645E+01 -.113E+02 -.922E+02   -.185E-01 0.847E-02 0.264E-02   0.362E-03 0.252E-03 -.855E-03
   -.191E+02 0.144E+02 0.103E+03   0.194E+02 -.147E+02 -.102E+03   -.127E-01 0.108E-01 0.420E-02   -.132E-03 -.428E-03 -.809E-03
   -.354E+02 0.775E+01 0.980E+02   0.354E+02 -.791E+01 -.973E+02   -.404E-02 0.283E-02 0.644E-02   0.622E-03 0.404E-03 -.930E-03
   -.252E+02 0.474E-01 0.852E+02   0.251E+02 -.380E-01 -.846E+02   0.290E-03 0.201E-02 0.439E-02   -.348E-03 -.102E-03 -.960E-03
   0.304E+02 -.677E+00 0.136E+03   -.302E+02 0.840E+00 -.135E+03   -.128E-01 -.843E-02 0.204E-02   -.738E-03 -.198E-03 0.978E-03
   0.517E+02 -.792E+01 0.153E+03   -.510E+02 0.814E+01 -.152E+03   -.368E-01 -.191E-01 -.502E-01   0.123E-02 -.857E-03 -.306E-02
   0.340E+02 -.155E+02 0.169E+03   -.330E+02 0.153E+02 -.167E+03   -.491E-01 0.228E-02 -.715E-02   0.908E-03 0.368E-03 -.164E-02
   -.916E+01 -.135E+02 0.161E+03   0.969E+01 0.126E+02 -.160E+03   -.823E-02 0.590E-01 0.227E-01   -.855E-03 0.597E-04 -.682E-03
   -.280E+02 -.411E+01 0.141E+03   0.281E+02 0.351E+01 -.140E+03   0.118E-02 0.285E-01 -.237E-01   0.125E-02 0.100E-02 -.325E-02
   -.709E+01 0.413E+00 0.131E+03   0.708E+01 -.550E+00 -.130E+03   -.223E-02 0.534E-02 -.245E-01   -.155E-02 -.723E-04 -.338E-02
   0.593E+02 0.952E+01 0.153E+03   -.591E+02 -.947E+01 -.152E+03   -.173E-01 -.153E-02 -.336E-01   -.698E-03 -.105E-02 -.180E-02
   0.923E+02 -.557E+01 0.198E+03   -.917E+02 0.606E+01 -.196E+03   -.472E-01 -.311E-01 -.117E+00   0.110E-02 0.932E-03 -.260E-02
   0.760E+02 -.411E+02 0.235E+03   -.752E+02 0.417E+02 -.233E+03   -.910E-01 -.410E-01 -.338E-01   0.970E-03 -.516E-03 -.307E-03
   0.224E+02 -.642E+02 0.222E+03   -.221E+02 0.638E+02 -.220E+03   -.308E-01 0.754E-01 0.163E+00   0.231E-03 -.258E-03 -.292E-02
   -.551E+01 -.419E+02 0.157E+03   0.543E+01 0.408E+02 -.155E+03   -.414E-03 0.873E-01 -.372E-01   0.114E-02 0.630E-03 -.419E-02
   0.148E+02 -.574E+01 0.135E+03   -.149E+02 0.517E+01 -.133E+03   -.313E-02 0.259E-01 -.271E-01   -.559E-03 -.560E-03 -.305E-02
   0.585E+02 0.269E+02 0.171E+03   -.586E+02 -.271E+02 -.169E+03   -.192E-01 0.184E-02 -.280E-01   -.450E-03 -.116E-02 -.170E-02
   0.100E+03 0.287E+02 0.251E+03   -.100E+03 -.284E+02 -.249E+03   -.390E-01 -.139E-01 -.113E+00   0.162E-02 0.999E-03 -.123E-02
   0.750E+02 -.202E+02 0.327E+03   -.748E+02 0.209E+02 -.325E+03   -.439E-01 -.385E-01 -.404E-01   0.949E-03 0.733E-03 -.307E-04
   0.463E+01 -.723E+02 0.306E+03   -.471E+01 0.729E+02 -.303E+03   0.428E-01 -.117E-01 -.737E-01   -.156E-03 -.549E-03 -.148E-02
   -.277E+02 -.682E+02 0.210E+03   0.271E+02 0.678E+02 -.207E+03   0.568E-01 0.403E-01 -.192E-01   0.380E-04 -.112E-04 -.641E-03
   0.321E+01 -.179E+02 0.151E+03   -.374E+01 0.172E+02 -.149E+03   0.654E-02 0.354E-01 -.261E-01   -.832E-03 -.202E-03 -.385E-02
   0.217E+02 0.352E+02 0.165E+03   -.221E+02 -.355E+02 -.163E+03   -.674E-02 0.306E-02 0.106E-01   -.169E-02 0.147E-02 0.810E-04
   0.570E+02 0.744E+02 0.265E+03   -.570E+02 -.742E+02 -.264E+03   -.348E-01 -.170E-01 0.110E+00   0.535E-03 0.104E-02 -.464E-02
   0.152E+02 0.373E+02 0.357E+03   -.152E+02 -.368E+02 -.356E+03   -.212E-01 -.238E-01 -.236E-01   -.129E-02 0.852E-03 0.788E-04
   -.566E+02 -.241E+02 0.365E+03   0.564E+02 0.249E+02 -.364E+03   0.633E-01 -.388E-01 0.636E+00   -.116E-02 0.148E-04 0.290E-02
   -.765E+02 -.556E+02 0.240E+03   0.758E+02 0.560E+02 -.238E+03   0.681E-01 -.816E-03 -.684E-01   -.532E-03 0.118E-03 -.249E-02
   -.330E+02 -.230E+02 0.162E+03   0.321E+02 0.228E+02 -.160E+03   0.325E-01 0.753E-02 -.458E-01   -.220E-02 0.326E-03 -.269E-02
[...]
   0.276E+01 -.191E+03 -.370E+03   -.261E+01 0.192E+03 0.370E+03   0.335E+00 0.890E+00 -.191E+00   0.417E-02 -.469E-03 0.119E-02
   0.415E+03 0.406E+03 -.112E+04   -.455E+03 -.416E+03 0.116E+04   0.394E+02 0.107E+02 -.426E+02   0.265E-02 0.277E-02 -.728E-02
   0.274E+03 0.379E+03 -.174E+03   -.301E+03 -.387E+03 0.121E+03   0.264E+02 0.898E+01 0.524E+02   0.779E-02 0.479E-02 0.129E-01
   -.394E+03 0.601E+03 -.742E+03   0.438E+03 -.641E+03 0.748E+03   -.429E+02 0.397E+02 -.519E+01   -.463E-02 -.187E-03 0.272E-02
   -.472E+03 0.133E+03 -.125E+04   0.503E+03 -.130E+03 0.130E+04   -.305E+02 -.137E+01 -.487E+02   0.234E-02 0.266E-02 -.595E-02
   -.550E+03 0.837E+02 -.237E+03   0.587E+03 -.749E+02 0.194E+03   -.368E+02 -.727E+01 0.433E+02   0.856E-03 0.177E-02 0.133E-01
   0.516E+03 0.108E+03 -.224E+03   -.553E+03 -.113E+03 0.181E+03   0.367E+02 0.785E+01 0.429E+02   0.942E-02 -.506E-03 0.173E-01
   0.431E+03 0.938E+02 -.126E+04   -.461E+03 -.941E+02 0.131E+04   0.297E+02 0.264E+01 -.483E+02   0.982E-02 -.440E-02 -.135E-01
   -.609E+03 -.181E+03 -.103E+04   0.656E+03 0.188E+03 0.106E+04   -.460E+02 -.355E+01 -.316E+02   -.340E-03 -.305E-02 -.459E-03
   -.260E+03 -.198E+03 -.681E+02   0.277E+03 0.208E+03 0.169E+02   -.165E+02 -.711E+01 0.531E+02   -.846E-02 -.469E-02 0.141E-01
   0.659E+03 -.132E+03 -.548E+03   -.708E+03 0.124E+03 0.530E+03   0.484E+02 0.104E+02 0.177E+02   0.683E-02 -.541E-02 0.104E-01
   0.145E+03 -.265E+03 -.133E+04   -.148E+03 0.271E+03 0.138E+04   0.380E+01 -.269E+01 -.516E+02   0.816E-02 -.253E-02 -.111E-01
   -.407E+03 -.373E+03 -.615E+03   0.458E+03 0.384E+03 0.622E+03   -.489E+02 -.881E+01 -.637E+01   -.132E-01 0.100E-02 -.282E-02
   0.260E+03 -.441E+03 -.426E+03   -.298E+03 0.473E+03 0.408E+03   0.370E+02 -.294E+02 0.186E+02   -.743E-04 0.269E-02 -.555E-02
   0.194E+01 -.366E+01 0.165E+01   0.114E-12 0.227E-12 -.324E-11   -.218E+01 0.380E+01 -.174E+01   0.162E-01 0.150E-02 -.663E-01

 POSITION                                       TOTAL-FORCE (eV/Angst)
      1.28980     -0.74438     17.38846        -0.000372      0.000805      0.000947
      2.54601      1.43141     17.39069        -0.000358     -0.000061     -0.000804
      3.80240      3.60680     17.38407         0.001829      0.001185     -0.001020
      5.05872      5.78180     17.37299         0.002152     -0.000333      0.000408
      6.31397      7.95774     17.37928        -0.000772     -0.000974     -0.000737
      7.57006     10.13360     17.38505         0.000608     -0.000502     -0.002307
      2.54575     -2.92006     17.38645        -0.000084      0.000064     -0.000498
      3.80229     -0.74403     17.38825        -0.000463      0.000098     -0.001386
      5.05878      1.43195     17.38063         0.000611      0.001805     -0.001075
      6.31461      3.60767     17.37347         0.000591      0.002201     -0.000624
      7.56910      5.78121     17.37225        -0.002379     -0.000828     -0.001494
      8.82578      7.95763     17.38280        -0.002531      0.000126     -0.003196
      3.80146     -5.09576     17.38160        -0.001023      0.000019     -0.000003
      5.05838     -2.91983     17.37741        -0.002295      0.002048     -0.002400
      6.31480     -0.74356     17.36776        -0.001450      0.002373     -0.000027
      7.57057      1.43167     17.34804         0.000977      0.002291      0.001458
      8.82509      3.60657     17.36822        -0.002296      0.000297     -0.001060
     10.08124      5.78183     17.37855        -0.003385     -0.000814     -0.001723
      5.05734     -7.27144     17.38229        -0.000298      0.000796      0.000584
      6.31378     -5.09498     17.37704        -0.001371      0.001446     -0.002452
      7.57012     -2.91933     17.36333        -0.001908      0.002053     -0.001625
      8.82635     -0.74322     17.34279         0.000247      0.001075      0.002519
     10.08119      1.43095     17.34899        -0.002807      0.000985     -0.000074
     11.33755      3.60639     17.37624        -0.004313      0.000865     -0.002888
      6.31368     -9.44706     17.38402        -0.000572      0.003175     -0.000494
      7.56985     -7.27109     17.38611         0.000531     -0.001567     -0.002413
      8.82611     -5.09509     17.37933        -0.001002      0.001323     -0.002541
     10.08209     -2.91938     17.36835         0.000824      0.002353     -0.000847
     11.33819     -0.74433     17.36517        -0.004848      0.000649     -0.001086
     12.59415      1.43114     17.37670        -0.003311     -0.000528     -0.003064
      7.57009    -11.62253     17.38674        -0.001982     -0.000945     -0.000208
      8.82621     -9.44689     17.38859         0.000280      0.001714     -0.001921
     10.08242     -7.27125     17.38437         0.000447     -0.002800     -0.001121
     11.33842     -5.09569     17.37968         0.001427      0.002524     -0.000797
     12.59452     -2.91996     17.37906        -0.003382     -0.001131     -0.001952
     13.85060     -0.74447     17.38228        -0.002099      0.002504     -0.002011
      1.28973      0.70601     17.38873         0.000075     -0.000715      0.004754
      2.54565      2.88169     17.38925         0.000003     -0.001304     -0.001845
      3.80160      5.05732     17.38007         0.000110     -0.000036      0.001130
      5.05774      7.23296     17.37619         0.000314      0.001372      0.003304
      6.31405      9.40852     17.38179        -0.001132      0.000852     -0.000657
      7.57026     11.58409     17.38602        -0.000564      0.001101     -0.000623
      2.54599     -1.46956     17.38891         0.000165      0.000953      0.000742
      3.80210      0.70621     17.39039         0.001042     -0.001890     -0.002414
      5.05793      2.88183     17.37862         0.000741      0.000005      0.001124
      6.31352      5.05757     17.36053         0.000775      0.000972     -0.000887
      7.56993      7.23267     17.37863        -0.001085      0.000207     -0.001914
      8.82621      9.40843     17.38558         0.000024      0.001456     -0.000317
      3.80196     -3.64520     17.38271        -0.000168      0.002520      0.000533
      5.05849     -1.46934     17.38141        -0.001278      0.000145     -0.000481
      6.31440      0.70625     17.36403        -0.000604     -0.000228      0.000668
      7.56998      2.88138     17.36035        -0.000201     -0.000080     -0.000438
      8.82591      5.05710     17.37085        -0.000534     -0.000139      0.001431
     10.08214      7.23274     17.38146        -0.000339      0.000975     -0.001837
      5.05781     -5.82081     17.37996         0.000943      0.000214      0.003441
      6.31406     -3.64496     17.36644        -0.001334      0.000715     -0.004026
      7.57055     -1.46929     17.35619        -0.000648     -0.000357      0.001442
      8.82656      0.70577     17.31968        -0.001607     -0.000764      0.005465
     10.08200      2.88128     17.36505        -0.001137     -0.001018     -0.002129
     11.33813      5.05700     17.38014        -0.000266      0.000773     -0.000928
[...]
      7.09904      2.20901     21.82453        -0.006190     -0.003275      0.003383
      7.55385      3.61392     21.31308        -0.008844      0.002445     -0.005615
      6.96307     -3.17091     22.43266        -0.000474      0.001131     -0.001121
      7.26821     -3.13622     20.27568         0.000898      0.000953     -0.008874
      8.85365     -3.84178     21.58167         0.004597     -0.007416      0.002880
      9.15752     -1.50586     22.74540         0.002153     -0.002912     -0.000358
      9.31282     -1.35495     20.55037         0.006606     -0.001521      0.000166
      6.56472     -0.58206     20.56154        -0.003551     -0.005243     -0.002784
      6.72937     -0.44101     22.75442        -0.000476     -0.006326      0.009710
      9.15431      1.08302     22.23558        -0.001066      0.000210     -0.000890
      8.42348      1.20052     20.15969        -0.003485     -0.000613     -0.006608
      5.85277      1.87004     21.36688         0.005856     -0.003954      0.007410
      7.00885      2.25480     23.19752         0.009319     -0.001059      0.006754
      8.77110      3.83039     21.47715         0.015663      0.003103      0.005709
      6.64501      4.33502     20.87043         0.002119     -0.006033      0.002070
    total drift:                               -0.226818      0.145184     -0.160677

  FREE ENERGIE OF THE ION-ELECTRON SYSTEM (eV)
  free  energy   TOTEN  =      -840.65622191 eV

  energy  without entropy=     -840.65622191  energy(sigma->0) =     -840.65622191

 d Force = 0.2074840E-04[ 0.881E-06, 0.406E-04]  d Energy = 0.3241569E-04-0.117E-04
 d Force = 0.2868541E+00[ 0.287E+00, 0.287E+00]  d Ewald  = 0.2868538E+00 0.254E-06

 reached required accuracy - stopping structural energy minimisation
 writing wavefunctions

 total charge

[...]

 magnetization (x)

# of ion       s       p       d       tot
    1       -0.000  -0.000   0.000  -0.000
    2        0.000   0.000   0.000   0.000
    3        0.000  -0.000   0.000  -0.000
    4        0.000   0.000   0.000   0.000
    5       -0.000   0.000   0.000   0.000
    6        0.000  -0.000   0.000  -0.000
    7        0.000  -0.000   0.000  -0.000
    8       -0.000  -0.000   0.000  -0.000
    9        0.000  -0.000   0.000  -0.000
   10       -0.000   0.000   0.000   0.000
   11        0.000   0.000   0.000   0.000
   12        0.000   0.000   0.000   0.000
   13        0.000  -0.000   0.000  -0.000
   14        0.000   0.000   0.000   0.000
   15        0.000   0.000   0.000   0.000
   16        0.000  -0.000   0.000  -0.000
   17       -0.000   0.000   0.000   0.000
   18       -0.000   0.000   0.000  -0.000
   19        0.000  -0.000   0.000  -0.000
   20        0.000  -0.000   0.000  -0.000
   21        0.000   0.000   0.000   0.000
   22        0.000   0.000   0.000   0.000
   23        0.000  -0.000   0.000  -0.000
   24       -0.000  -0.000   0.000  -0.000
   25       -0.000  -0.000   0.000  -0.000
   26       -0.000  -0.000   0.000  -0.000
   27       -0.000  -0.000   0.000  -0.000
   28        0.000  -0.000   0.000  -0.000
   29       -0.000  -0.000   0.000  -0.000
   30       -0.000  -0.000   0.000  -0.000
   31       -0.000   0.000   0.000   0.000
   32       -0.000   0.000   0.000   0.000
   33       -0.000  -0.000   0.000  -0.000
   34       -0.000   0.000   0.000   0.000
   35        0.000  -0.000   0.000  -0.000
   36        0.000  -0.000   0.000  -0.000
   37        0.000  -0.000   0.000  -0.000
   38        0.000  -0.000   0.000  -0.000
   39        0.000   0.000   0.000   0.000
   40        0.000  -0.000   0.000  -0.000
   41       -0.000  -0.000   0.000  -0.000
   42        0.000  -0.000   0.000  -0.000
   43        0.000   0.000   0.000   0.000
   44       -0.000   0.000   0.000   0.000
   45        0.000  -0.000   0.000  -0.000
   46        0.000  -0.000   0.000  -0.000
   47        0.000  -0.000   0.000  -0.000
   48        0.000   0.000   0.000   0.000
   49        0.000   0.000   0.000   0.000
   50       -0.000   0.000   0.000   0.000
   51       -0.000  -0.000   0.000  -0.000
   52       -0.000  -0.000   0.000  -0.000
   53        0.000   0.000   0.000   0.000
   54        0.000   0.000   0.000   0.000
   55       -0.000   0.000   0.000   0.000
   56       -0.000  -0.000   0.000  -0.000
   57       -0.000  -0.000   0.000  -0.000
   58       -0.000  -0.000   0.000  -0.000
   59        0.000   0.000   0.000   0.000
   60        0.000   0.000   0.000   0.000
[...]
   77       -0.000   0.000   0.000   0.000
   78        0.000   0.000   0.000   0.000
   79        0.000   0.000   0.000   0.000
   80        0.000  -0.000   0.000  -0.000
   81        0.000   0.000   0.000   0.000
   82        0.000   0.000   0.000   0.000
   83        0.000   0.000   0.000   0.000
   84        0.000   0.000   0.000   0.000
   85       -0.000  -0.000   0.000  -0.000
   86       -0.000   0.000   0.000   0.000
   87        0.000  -0.000   0.000  -0.000
   88       -0.000   0.000   0.000   0.000
   89        0.000   0.000   0.000   0.000
   90       -0.000   0.000   0.000   0.000
   91        0.000  -0.000   0.000  -0.000
tot          0.000   0.000   0.000   0.000