 vasp.5.4.4.18Apr17-6-g9f103f2a35 (build May 01 2020 14:57:12) complex

 executed on             LinuxIFC date 2021.03.16  23:17:42

 INCAR:
 POTCAR:    PAW_PBE B 06Sep2000
 POTCAR:    PAW_PBE N 08Apr2002
 POTCAR:    PAW_PBE C 08Apr2002
 POTCAR:    PAW_PBE F 08Apr2002
 POTCAR:    PAW_PBE O 08Apr2002

 POTCAR:    PAW_PBE B 06Sep2000
   VRHFIN =B: s2p1

   TITEL  = PAW_PBE B 06Sep2000
   POMASS =   10.811; ZVAL   =    3.000    mass and valenz
   ENMAX  =  318.614; ENMIN  =  238.960 eV

 POTCAR:    PAW_PBE N 08Apr2002
   VRHFIN =N: s2p3

   TITEL  = PAW_PBE N 08Apr2002
   POMASS =   14.001; ZVAL   =    5.000    mass and valenz
   ENMAX  =  400.000; ENMIN  =  300.000 eV

 POTCAR:    PAW_PBE C 08Apr2002
   VRHFIN =C: s2p2

[...]

 POTCAR:    PAW_PBE F 08Apr2002
   VRHFIN =F: s2p5

[...]

 POTCAR:    PAW_PBE O 08Apr2002
   VRHFIN =O: s2p4

   TITEL  = PAW_PBE O 08Apr2002
   POMASS =   16.000; ZVAL   =    6.000    mass and valenz
   ENMAX  =  400.000; ENMIN  =  300.000 eV

 Optimization of the real space projectors (new method)

 maximal supplied QI-value         = 22.11
 optimisation between [QCUT,QGAM] = [ 11.94, 23.88] = [ 39.92,159.67] Ry
 Optimized for a Real-space Cutoff    1.18 Angstroem

   l    n(q)    QCUT    max X(q) W(low)/X(q) W(high)/X(q)  e(spline)
   0      8    11.939    53.033    0.11E-03    0.34E-03    0.60E-07
   0      8    11.939    34.740    0.11E-03    0.34E-03    0.59E-07
   1      8    11.939    30.949    0.22E-03    0.20E-03    0.17E-06
   1      8    11.939    19.518    0.20E-03    0.18E-03    0.16E-06
 Optimization of the real space projectors (new method)

[...]

   l    n(q)    QCUT    max X(q) W(low)/X(q) W(high)/X(q)  e(spline)
   0      8    11.883    14.049    0.56E-04    0.86E-04    0.22E-06
   0      8    11.883     8.945    0.81E-04    0.11E-03    0.30E-06
   1      8    11.883     7.086    0.16E-03    0.15E-04    0.31E-06
   1      8    11.883     6.747    0.15E-03    0.14E-04    0.28E-06
 Optimization of the real space projectors (new method)

 maximal supplied QI-value         = 24.76
 optimisation between [QCUT,QGAM] = [ 11.88, 24.01] = [ 39.54,161.47] Ry
 Optimized for a Real-space Cutoff    1.18 Angstroem

   l    n(q)    QCUT    max X(q) W(low)/X(q) W(high)/X(q)  e(spline)
   0      8    11.883    20.381    0.86E-04    0.11E-03    0.31E-06
   0      8    11.883    15.268    0.94E-04    0.12E-03    0.33E-06
   1      8    11.883     5.964    0.19E-03    0.18E-04    0.33E-06
   1      8    11.883     5.382    0.17E-03    0.20E-04    0.29E-06
  PAW_PBE B 06Sep2000                   :
  PAW_PBE N 08Apr2002                   :
  PAW_PBE C 08Apr2002                   :
  PAW_PBE F 08Apr2002                   :
  PAW_PBE O 08Apr2002                   :

 POSCAR: B N C F O
  positions in direct lattice
  velocities in cartesian coordinates

 METAGGA = SCAN     LMAXTAU =  6    LMIXTAU =  F

 ion  position               nearest neighbor table
   1  0.111  0.056  0.500-  42 1.45  37 1.45  43 1.45
   2  0.111  0.222  0.500-  37 1.45  38 1.45  44 1.45
   3  0.111  0.389  0.500-  38 1.45  39 1.45  45 1.45
   4  0.111  0.556  0.500-  40 1.45  39 1.45  46 1.45
   5  0.111  0.722  0.500-  41 1.45  40 1.45  47 1.45
   6  0.111  0.889  0.500-  41 1.45  42 1.45  48 1.45
   7  0.278  0.056  0.500-  48 1.45  49 1.45  43 1.45
   8  0.278  0.222  0.500-  43 1.45  50 1.45  44 1.45
   9  0.278  0.389  0.500-  44 1.45  45 1.45  51 1.45
  10  0.278  0.556  0.500-  46 1.45  52 1.45  45 1.45
  11  0.278  0.722  0.500-  53 1.45  47 1.45  46 1.45
  12  0.278  0.889  0.500-  54 1.45  47 1.45  48 1.45
  13  0.444  0.056  0.500-  55 1.45  54 1.45  49 1.45
  14  0.444  0.222  0.500-  56 1.45  49 1.45  50 1.45
  15  0.444  0.389  0.500-  57 1.45  50 1.45  51 1.45
  16  0.444  0.556  0.500-  58 1.45  52 1.45  51 1.45
  17  0.444  0.722  0.500-  59 1.45  53 1.45  52 1.45
  18  0.444  0.889  0.500-  60 1.45  54 1.45  53 1.45
  19  0.611  0.056  0.500-  61 1.45  60 1.45  55 1.45
  20  0.611  0.222  0.500-  62 1.45  55 1.45  56 1.45
  21  0.611  0.389  0.500-  63 1.45  56 1.45  57 1.45
  22  0.611  0.556  0.500-  64 1.45  58 1.45  57 1.45
  23  0.611  0.722  0.500-  65 1.45  59 1.45  58 1.45
  24  0.611  0.889  0.500-  66 1.45  60 1.45  59 1.45
  25  0.778  0.056  0.500-  66 1.45  61 1.45  67 1.45
  26  0.778  0.222  0.500-  61 1.45  62 1.45  68 1.45
  27  0.778  0.389  0.500-  62 1.45  69 1.45  63 1.45
  28  0.778  0.556  0.500-  64 1.45  70 1.45  63 1.45
  29  0.778  0.722  0.500-  65 1.45  71 1.45  64 1.45
  30  0.778  0.889  0.500-  66 1.45  65 1.45  72 1.45
  31  0.944  0.056  0.500-  72 1.45  67 1.45  37 1.45
  32  0.944  0.222  0.500-  67 1.45  68 1.45  38 1.45
  33  0.944  0.389  0.500-  68 1.45  69 1.45  39 1.45
  34  0.944  0.556  0.500-  70 1.45  69 1.45  40 1.45
  35  0.944  0.722  0.500-  71 1.45  70 1.45  41 1.45
  36  0.944  0.889  0.500-  72 1.45  71 1.45  42 1.45
  37  0.056  0.111  0.500-   2 1.45   1 1.45  31 1.45
  38  0.056  0.278  0.500-   3 1.45   2 1.45  32 1.45
  39  0.056  0.445  0.500-   3 1.45   4 1.45  33 1.45
  40  0.056  0.611  0.500-   4 1.45   5 1.45  34 1.45
  41  0.056  0.778  0.500-   6 1.45   5 1.45  35 1.45
  42  0.056  0.945  0.500-   1 1.45   6 1.45  36 1.45
  43  0.222  0.111  0.500-   8 1.45   7 1.45   1 1.45
  44  0.222  0.278  0.500-   9 1.45   8 1.45   2 1.45
  45  0.222  0.445  0.500-   9 1.45  10 1.45   3 1.45
  46  0.222  0.611  0.500-  10 1.45   4 1.45  11 1.45
  47  0.222  0.778  0.500-  11 1.45  12 1.45   5 1.45
  48  0.222  0.945  0.500-   7 1.45  12 1.45   6 1.45
  49  0.389  0.111  0.500-  14 1.45   7 1.45  13 1.45
  50  0.389  0.278  0.501-   8 1.45  15 1.45  14 1.45
  51  0.389  0.445  0.500-   9 1.45  15 1.45  16 1.45
  52  0.389  0.611  0.500-  10 1.45  16 1.45  17 1.45
  53  0.389  0.778  0.500-  11 1.45  17 1.45  18 1.45
  54  0.389  0.945  0.500-  13 1.45  12 1.45  18 1.45
  55  0.556  0.111  0.500-  13 1.45  20 1.45  19 1.45
  56  0.556  0.278  0.500-  14 1.45  21 1.45  20 1.45
  57  0.556  0.445  0.500-  15 1.45  22 1.45  21 1.45
  58  0.556  0.611  0.500-  16 1.45  22 1.45  23 1.45
  59  0.556  0.778  0.500-  17 1.45  23 1.45  24 1.45
  60  0.556  0.945  0.500-  18 1.45  19 1.45  24 1.45
[...]
  68  0.889  0.278  0.500-  33 1.45  32 1.45  26 1.45
  69  0.889  0.445  0.500-  33 1.45  34 1.45  27 1.45
  70  0.889  0.611  0.500-  34 1.45  35 1.45  28 1.45
  71  0.889  0.778  0.500-  35 1.45  36 1.45  29 1.45
  72  0.889  0.945  0.500-  31 1.45  36 1.45  30 1.45
  73  0.377  0.298  0.659-  76 1.34  78 1.34  77 1.35  74 1.51
  74  0.362  0.267  0.617-  79 1.33  80 1.33  73 1.51
  75  0.314  0.523  0.609-  82 1.16  81 1.16
  76  0.467  0.385  0.663-  73 1.34
  77  0.377  0.227  0.682-  73 1.35
  78  0.301  0.314  0.670-  73 1.34
  79  0.438  0.257  0.603-  74 1.33
  80  0.272  0.186  0.610-  74 1.33
  81  0.402  0.578  0.606-  75 1.16
  82  0.227  0.467  0.612-  75 1.16

IMPORTANT INFORMATION: All symmetrisations will be switched off!
NOSYMM: (Re-)initialisation of all symmetry stuff for point group C_1.

 KPOINTS: K-Point Grid

Automatic generation of k-mesh.
Space group operators:
 irot       det(A)        alpha          n_x          n_y          n_z        tau_x        tau_y        tau_z
    1     1.000000     0.000000     1.000000     0.000000     0.000000     0.000000     0.000000     0.000000

 Subroutine IBZKPT returns following result:

 Found      5 irreducible k-points:

 Following reciprocal coordinates:
            Coordinates               Weight
  0.000000  0.000000  0.000000      1.000000
  0.333333  0.000000  0.000000      2.000000
  0.000000  0.333333  0.000000      2.000000
  0.333333  0.333333  0.000000      2.000000
 -0.333333  0.333333  0.000000      2.000000

 Following cartesian coordinates:
            Coordinates               Weight
  0.000000  0.000000  0.000000      1.000000
  0.022114 -0.012768  0.000000      2.000000
  0.022114  0.012768  0.000000      2.000000
  0.044229  0.000000  0.000000      2.000000
  0.000000  0.025535  0.000000      2.000000

 SYSTEM =  SiC
 POSCAR =  B N C F O

 Startparameter for this run:
   NWRITE =      2    write-flag & timer
   PREC   = accura    normal or accurate (medium, high low for compatibility)
   ISTART =      0    job   : 0-new  1-cont  2-samecut
   ICHARG =      2    charge: 1-file 2-atom 10-const
   ISPIN  =      2    spin polarized calculation?
   LNONCOLLINEAR =      F non collinear calculations
   LSORBIT =      F    spin-orbit coupling
   INIWAV =      1    electr: 0-lowe 1-rand  2-diag
   LASPH  =      T    aspherical Exc in radial PAW
   METAGGA=      F    non-selfconsistent MetaGGA calc.

 Electronic Relaxation 1
   ENCUT  =  550.0 eV  40.42 Ry    6.36 a.u.  28.82 28.82 67.15*2*pi/ulx,y,z
   ENINI  =  550.0     initial cutoff
   ENAUG  =  644.9 eV  augmentation charge cutoff
   NELM   =    100;   NELMIN=  2; NELMDL= -5     # of ELM steps
   EDIFF  = 0.1E-04   stopping-criterion for ELM
   LREAL  =      T    real-space projection
   NLSPLINE    = F    spline interpolate recip. space projectors
   LCOMPAT=      F    compatible to vasp.4.4
   GGA_COMPAT  = T    GGA compatible to vasp.4.4-vasp.4.6
   LMAXPAW     = -100 max onsite density
   LMAXMIX     =    2 max onsite mixed and CHGCAR
   VOSKOWN=      0    Vosko Wilk Nusair interpolation
   ROPT   =   -0.00025  -0.00025  -0.00025  -0.00025
   ROPT   =   -0.00025
 Ionic relaxation
   EDIFFG = -.2E-01   stopping-criterion for IOM
   NSW    =    500    number of steps for IOM
   NBLOCK =      1;   KBLOCK =    500    inner block; outer block
   IBRION =      2    ionic relax: 0-MD 1-quasi-New 2-CG
   NFREE  =      1    steps in history (QN), initial steepest desc. (CG)
   ISIF   =      2    stress and relaxation
   IWAVPR =     11    prediction:  0-non 1-charg 2-wave 3-comb
   ISYM   =      0    0-nonsym 1-usesym 2-fastsym
   LCORR  =      T    Harris-Foulkes like correction to forces

   POTIM  = 0.5000    time-step for ionic-motion
   TEIN   =    0.0    initial temperature
   TEBEG  =    0.0;   TEEND  =   0.0 temperature during run
   SMASS  =  -3.00    Nose mass-parameter (am)
   estimated Nose-frequenzy (Omega)   =  0.10E-29 period in steps =****** mass=  -0.519E-26a.u.
   SCALEE = 1.0000    scale energy and forces
   NPACO  =    256;   APACO  = 16.0  distance and # of slots for P.C.
   PSTRESS=    0.0 pullay stress

  Mass of Ions in am
   POMASS =  10.81 14.00 12.01 19.00 16.00
  Ionic Valenz
   ZVAL   =   3.00  5.00  4.00  7.00  6.00
  Atomic Wigner-Seitz radii
  virtual crystal weights
   VCA    =   1.00  1.00  1.00  1.00  1.00
   NELECT =     346.7000    total number of electrons
   NUPDOWN=      -1.0000    fix difference up-down

 DOS related values:
   EMIN   =  10.00;   EMAX   =-10.00  energy-range for DOS
   EFERMI =   0.00
   ISMEAR =     0;   SIGMA  =   0.05  broadening in eV -4-tet -1-fermi 0-gaus

 Electronic relaxation 2 (details)
   IALGO  =     68    algorithm
   LDIAG  =      T    sub-space diagonalisation (order eigenvalues)
   LSUBROT=      F    optimize rotation matrix (better conditioning)
   TURBO    =      0    0=normal 1=particle mesh
   IRESTART =      0    0=no restart 2=restart with 2 vectors
   NREBOOT  =      0    no. of reboots
   NMIN     =      0    reboot dimension
[...]
   0.250E+01 -.523E+00 0.422E+02   -.250E+01 0.519E+00 -.421E+02   0.115E-02 -.999E-03 0.680E-04   0.276E-04 -.464E-05 0.181E-03
   0.487E+00 0.430E+01 0.445E+02   -.477E+00 -.431E+01 -.445E+02   0.132E-02 0.125E-04 -.148E-04   0.317E-04 0.212E-04 0.201E-03
   -.816E+01 0.786E+01 0.484E+02   0.817E+01 -.787E+01 -.484E+02   0.364E-04 0.637E-03 -.107E-02   -.362E-04 0.521E-04 0.228E-03
   -.137E+02 0.609E+01 0.489E+02   0.137E+02 -.608E+01 -.488E+02   -.160E-02 -.306E-03 -.123E-02   -.106E-03 0.545E-04 0.238E-03
   -.106E+02 0.224E+01 0.460E+02   0.106E+02 -.222E+01 -.460E+02   -.193E-02 -.156E-02 -.982E-04   -.110E-03 0.243E-04 0.221E-03
   -.303E+01 -.116E+01 0.432E+02   0.302E+01 0.117E+01 -.431E+02   -.609E-04 -.180E-02 -.459E-04   -.472E-04 -.819E-05 0.191E-03
   0.148E+02 -.535E+01 0.490E+02   -.148E+02 0.537E+01 -.489E+02   0.499E-02 -.377E-02 -.206E-03   0.129E-03 -.250E-04 0.224E-03
   0.133E+02 -.848E+01 0.499E+02   -.133E+02 0.849E+01 -.498E+02   0.570E-02 -.442E-02 -.801E-04   0.122E-03 -.608E-04 0.240E-03
   0.556E+01 -.784E+01 0.477E+02   -.558E+01 0.784E+01 -.476E+02   0.456E-02 -.309E-02 0.122E-03   0.484E-04 -.675E-04 0.226E-03
   -.132E+01 -.318E+01 0.437E+02   0.130E+01 0.318E+01 -.437E+02   0.148E-02 -.184E-02 -.576E-03   -.115E-04 -.383E-04 0.202E-03
   0.559E+00 0.859E+00 0.425E+02   -.570E+00 -.845E+00 -.425E+02   0.859E-03 -.205E-02 -.463E-03   -.648E-05 -.555E-05 0.188E-03
   0.890E+01 -.114E+00 0.454E+02   -.891E+01 0.128E+00 -.453E+02   0.221E-02 -.256E-02 -.213E-03   0.610E-04 -.535E-06 0.198E-03
   0.389E+02 -.123E+02 0.103E+03   -.390E+02 0.124E+02 -.103E+03   0.955E-02 0.123E-02 0.131E-01   0.297E-03 -.367E-04 0.505E-03
   0.318E+02 -.237E+02 0.104E+03   -.318E+02 0.238E+02 -.104E+03   0.808E-02 -.544E-02 0.460E-02   0.213E-03 -.143E-03 0.518E-03
   0.156E+02 -.278E+02 0.939E+02   -.157E+02 0.279E+02 -.938E+02   0.247E-02 -.104E-01 0.475E-04   0.798E-04 -.197E-03 0.442E-03
   0.404E+01 -.154E+02 0.769E+02   -.410E+01 0.155E+02 -.768E+02   -.276E-02 -.101E-01 0.982E-02   0.254E-04 -.136E-03 0.365E-03
   0.117E+02 0.350E+00 0.739E+02   -.117E+02 -.314E+00 -.738E+02   -.134E-03 -.270E-02 0.126E-01   0.942E-04 -.397E-04 0.348E-03
   0.303E+02 0.258E+01 0.874E+02   -.304E+02 -.255E+01 -.874E+02   0.588E-02 0.233E-02 0.110E-01   0.227E-03 0.115E-04 0.411E-03
   0.428E+02 0.903E+01 0.137E+03   -.429E+02 -.905E+01 -.137E+03   0.217E-01 0.526E-02 -.170E-01   0.255E-03 0.830E-04 0.617E-03
   0.295E+02 -.188E+02 0.149E+03   -.297E+02 0.188E+02 -.149E+03   0.209E-01 -.497E-02 -.249E-01   0.154E-03 -.685E-04 0.662E-03
   0.140E+02 -.317E+02 0.141E+03   -.142E+02 0.318E+02 -.142E+03   0.188E-01 -.192E-01 -.497E-02   0.547E-04 -.190E-03 0.616E-03
   -.167E+01 -.346E+02 0.105E+03   0.161E+01 0.347E+02 -.106E+03   -.251E-03 -.315E-01 -.366E-02   -.175E-04 -.207E-03 0.459E-03
   0.573E+01 -.768E+01 0.808E+02   -.573E+01 0.775E+01 -.808E+02   0.436E-03 -.111E-01 0.140E-01   0.443E-04 -.679E-04 0.399E-03
   0.275E+02 0.159E+02 0.950E+02   -.276E+02 -.159E+02 -.950E+02   0.812E-02 -.235E-03 0.189E-01   0.170E-03 0.692E-04 0.468E-03
   0.171E+02 0.390E+02 0.128E+03   -.171E+02 -.390E+02 -.128E+03   0.947E-02 0.108E-01 -.272E-01   0.824E-04 0.226E-03 0.581E-03
   -.215E+01 0.143E+02 0.171E+03   0.214E+01 -.145E+02 -.171E+03   -.311E-02 0.104E-01 -.756E-01   0.102E-04 0.122E-03 0.717E-03
   -.186E+02 -.660E+01 0.157E+03   0.188E+02 0.656E+01 -.157E+03   -.137E-01 0.629E-02 -.405E-01   -.823E-04 -.357E-04 0.691E-03
   -.275E+02 -.237E+02 0.135E+03   0.277E+02 0.236E+02 -.135E+03   -.261E-01 -.599E-02 0.580E-02   -.157E-03 -.157E-03 0.576E-03
   -.153E+02 -.155E+02 0.909E+02   0.154E+02 0.155E+02 -.909E+02   -.656E-02 -.749E-02 0.132E-02   -.992E-04 -.969E-04 0.426E-03
   0.585E+01 0.158E+02 0.868E+02   -.582E+01 -.158E+02 -.868E+02   0.413E-02 -.217E-02 0.191E-01   0.187E-05 0.827E-04 0.442E-03
   -.326E+01 0.304E+02 0.904E+02   0.329E+01 -.304E+02 -.904E+02   -.296E-02 0.788E-03 0.100E-01   -.508E-04 0.194E-03 0.426E-03
   -.214E+02 0.389E+02 0.125E+03   0.215E+02 -.389E+02 -.125E+03   -.102E-01 0.800E-02 -.244E-01   -.997E-04 0.267E-03 0.570E-03
   -.407E+02 0.164E+02 0.130E+03   0.408E+02 -.164E+02 -.130E+03   -.213E-01 0.792E-02 -.740E-02   -.197E-03 0.135E-03 0.634E-03
   -.420E+02 0.180E+01 0.115E+03   0.421E+02 -.177E+01 -.115E+03   -.204E-01 0.540E-02 -.608E-02   -.249E-03 -.156E-04 0.562E-03
   -.299E+02 -.781E+01 0.905E+02   0.299E+02 0.774E+01 -.903E+02   -.106E-01 -.294E-02 -.360E-02   -.221E-03 -.699E-04 0.427E-03
   -.977E+01 0.536E+01 0.763E+02   0.981E+01 -.540E+01 -.763E+02   -.395E-02 -.228E-02 0.949E-02   -.121E-03 0.318E-04 0.366E-03
[...]
   -.257E+01 -.226E+01 0.753E+02   0.255E+01 0.225E+01 -.752E+02   -.479E-02 -.452E-02 0.125E-01   0.394E-05 -.473E-04 0.374E-03
   -.861E+01 0.237E+01 0.725E+02   0.859E+01 -.235E+01 -.724E+02   -.548E-02 -.177E-02 0.110E-01   -.860E-04 0.226E-05 0.346E-03
   -.655E+00 0.214E+01 0.720E+02   0.634E+00 -.211E+01 -.719E+02   -.484E-02 -.144E-03 0.534E-02   -.450E-04 0.158E-04 0.330E-03
   0.123E+02 -.357E+01 0.745E+02   -.124E+02 0.359E+01 -.744E+02   -.118E-02 -.526E-03 0.633E-02   0.947E-04 -.165E-04 0.337E-03
   -.242E+00 0.153E+02 -.374E+03   -.231E+01 -.175E+02 0.367E+03   0.250E+01 0.199E+01 0.827E+01   0.100E-03 0.168E-03 0.634E-04
   -.459E+02 -.772E+02 -.265E+03   0.540E+02 0.885E+02 0.268E+03   -.834E+01 -.117E+02 -.200E+01   -.120E-03 -.438E-04 -.355E-03
   -.326E+02 -.865E+02 -.373E+03   0.326E+02 0.865E+02 0.373E+03   -.167E-01 -.386E-01 -.685E-01   -.887E-04 -.237E-03 0.217E-03
   -.541E+03 0.431E+02 -.784E+03   0.600E+03 -.453E+02 0.793E+03   -.577E+02 0.168E+01 -.745E+01   0.112E-02 0.187E-03 -.268E-03
   0.202E+03 0.380E+03 -.102E+04   -.224E+03 -.419E+03 0.106E+04   0.222E+02 0.387E+02 -.339E+02   -.417E-03 -.705E-03 0.286E-03
   0.182E+03 -.428E+03 -.889E+03   -.202E+03 0.481E+03 0.909E+03   0.196E+02 -.518E+02 -.179E+02   -.257E-03 0.119E-02 -.150E-03
   -.166E+03 0.395E+03 -.394E+03   0.190E+03 -.445E+03 0.370E+03   -.228E+02 0.488E+02 0.241E+02   0.712E-04 0.853E-05 0.880E-04
   0.474E+03 -.315E+02 -.471E+03   -.533E+03 0.381E+02 0.459E+03   0.571E+02 -.650E+01 0.132E+02   -.140E-03 0.161E-03 0.152E-05
   -.329E+03 -.727E+00 -.535E+03   0.394E+03 -.249E+02 0.528E+03   -.614E+02 0.244E+02 0.659E+01   -.269E-03 -.313E-03 0.371E-03
   0.244E+03 -.233E+03 -.587E+03   -.309E+03 0.258E+03 0.594E+03   0.615E+02 -.242E+02 -.628E+01   -.796E-05 -.417E-03 0.275E-03
   -.126E+02 -.214E+02 0.153E+02   0.568E-13 0.000E+00 0.136E-11   0.125E+02 0.212E+02 -.155E+02   -.600E-05 -.103E-05 0.267E-01

 POSITION                                       TOTAL-FORCE (eV/Angst)
      1.25658     -0.72439     17.56955         0.003705     -0.000725      0.000834
      2.51258      1.45127     17.56997         0.003899     -0.000736      0.003943
      3.76880      3.62692     17.56941         0.000333      0.000753      0.000628
      5.02498      5.80264     17.56768         0.001599     -0.000538     -0.000105
      6.28120      7.97819     17.56675         0.001219     -0.000154      0.000188
      7.53723     10.15379     17.56753         0.002077     -0.001900      0.000709
      2.51280     -2.90013     17.57114        -0.001585     -0.000360      0.001985
      3.76871     -0.72457     17.57304        -0.001544      0.002898      0.007157
      5.02492      1.45116     17.57125        -0.002519     -0.001681      0.005089
      6.28133      3.62717     17.56636        -0.003536      0.002533      0.005102
      7.53745      5.80266     17.56738        -0.001915      0.001089     -0.001098
      8.79343      7.97813     17.56760        -0.001532      0.001256      0.000739
      3.76903     -5.07589     17.56975        -0.002431      0.003770      0.001855
      5.02505     -2.90034     17.57377        -0.002263      0.001132      0.006808
      6.28128     -0.72464     17.57448        -0.000796      0.001139      0.005803
      7.53758      1.45126     17.56988        -0.003511     -0.001975      0.005903
      8.79350      3.62687     17.56827        -0.000931      0.004960      0.000710
     10.04959      5.80245     17.56778        -0.003782      0.003399     -0.000194
      5.02516     -7.25135     17.56794        -0.001727      0.003558     -0.000304
      6.28118     -5.07582     17.56983        -0.001914      0.002481      0.001022
      7.53729     -2.90017     17.57114        -0.001506      0.001726      0.001942
      8.79348     -0.72442     17.56977        -0.003327     -0.001240      0.002710
     10.04955      1.45129     17.56856        -0.002478     -0.000622      0.000728
     11.30563      3.62687     17.56788        -0.002120      0.002057     -0.000123
      6.28115     -9.42686     17.56746         0.002663      0.000252      0.000286
      7.53725     -7.25126     17.56780         0.002883      0.001066     -0.001286
      8.79334     -5.07566     17.56778         0.001911      0.001000      0.000430
     10.04944     -2.89999     17.56752         0.000872     -0.001075      0.000989
     11.30556     -0.72434     17.56761         0.000640     -0.001915     -0.001710
     12.56161      1.45130     17.56746         0.001862     -0.001610      0.000760
      7.53714    -11.60239     17.56789         0.005411     -0.003501     -0.000725
      8.79326     -9.42679     17.56807         0.005205     -0.001841      0.000468
     10.04938     -7.25119     17.56773         0.003763     -0.000669      0.001034
     11.30552     -5.07556     17.56701         0.002891     -0.000850     -0.000604
     12.56162     -2.89991     17.56686         0.002907     -0.002870     -0.000326
     13.81768     -0.72427     17.56738         0.003064     -0.003593      0.000463
      1.25685      0.72599     17.56874        -0.005779      0.002213      0.001262
      2.51300      2.90157     17.56903        -0.004143      0.003225      0.000728
      3.76908      5.07720     17.56829        -0.003162      0.001111      0.000194
      5.02515      7.25292     17.56685        -0.002888      0.001793      0.001278
      6.28124      9.42854     17.56659        -0.003374      0.002153      0.000633
      7.53731     11.60414     17.56776        -0.004606      0.002825      0.000758
      2.51286     -1.44964     17.57194         0.000523      0.000280     -0.000988
      3.76896      0.72593     17.57273         0.000085      0.000446     -0.002362
      5.02523      2.90157     17.56999         0.002686      0.001581     -0.002696
      6.28121      5.07741     17.56740         0.000870     -0.003797     -0.002833
      7.53733      7.25297     17.56682         0.000071     -0.000596      0.001287
      8.79339      9.42856     17.56817        -0.000839     -0.000638      0.001813
      3.76896     -3.62526     17.57266         0.002919      0.000228     -0.000713
      5.02495     -1.44960     17.57699         0.001222     -0.002043     -0.004182
      6.28110      0.72603     17.57433         0.003957      0.002134     -0.002127
      7.53709      2.90170     17.56805         0.002541     -0.001595     -0.004628
      8.79332      5.07731     17.56785         0.003423     -0.004141      0.000040
     10.04944      7.25293     17.56777         0.002436     -0.003675      0.001723
      5.02507     -5.80083     17.56883         0.001970     -0.004271      0.000911
      6.28107     -3.62521     17.57246         0.001736     -0.001841     -0.000506
      7.53717     -1.44958     17.57231         0.001975     -0.001717      0.001007
      8.79327      0.72604     17.56952         0.002987      0.001697     -0.000679
     10.04938      2.90171     17.56831         0.002133     -0.002134      0.000415
     11.30554      5.07731     17.56754         0.003023     -0.002811      0.000956
[...]
      8.79346     -7.97643     17.56763        -0.004640      0.000035     -0.000133
     10.04951     -5.80082     17.56705        -0.003050      0.000496      0.000762
     11.30557     -3.62519     17.56672        -0.002089      0.002090      0.000575
     12.56169     -1.44957     17.56705        -0.003322      0.003317     -0.000018
     13.81778      0.72606     17.56731        -0.004023      0.003101      0.000202
      5.09007     -1.02598     23.12745        -0.007280     -0.009674     -0.000588
      4.73891     -1.24907     21.67884        -0.008561     -0.007480     -0.011406
      6.30757      2.71785     21.39417         0.008440     -0.002493     -0.008190
      6.42083     -1.06807     23.28813        -0.004981      0.012090     -0.005625
      4.54903     -1.96562     23.93812        -0.004516     -0.002180     -0.009534
      4.63350      0.16932     23.53063         0.013106      0.002081     -0.007960
      5.24364     -2.36125     21.16188         0.003644     -0.005836     -0.005269
      3.44736     -1.11824     21.40701        -0.000811     -0.000138     -0.006140
      7.38339      2.28971     21.27814         0.008036     -0.000939     -0.004352
      5.22969      3.14242     21.50348        -0.007649      0.008228      0.008203
    total drift:                               -0.154785     -0.178235     -0.144032

  FREE ENERGIE OF THE ION-ELECTRON SYSTEM (eV)
  free  energy   TOTEN  =      -777.87482027 eV

  energy  without entropy=     -777.86911537  energy(sigma->0) =     -777.87196782

 reached required accuracy - stopping structural energy minimisation
 writing wavefunctions

 total charge

[...]

 magnetization (x)

# of ion       s       p       d       tot
    1        0.000   0.000   0.000   0.000
    2       -0.000  -0.000   0.000  -0.000
    3       -0.000   0.000   0.000   0.000
    4        0.000   0.000   0.000   0.000
    5        0.000   0.000   0.000   0.000
    6        0.000   0.000   0.000   0.000
    7        0.000   0.000   0.000   0.000
    8       -0.000   0.000   0.000   0.000
    9        0.000   0.000   0.000   0.000
   10       -0.000  -0.000   0.000  -0.000
   11       -0.000   0.000   0.000   0.000
   12        0.000   0.000   0.000   0.000
   13        0.000  -0.000   0.000  -0.000
   14       -0.000   0.000   0.000  -0.000
   15        0.000   0.000   0.000   0.000
   16       -0.000   0.000   0.000   0.000
   17       -0.000  -0.000   0.000  -0.000
   18        0.000   0.000   0.000   0.000
   19       -0.000   0.000   0.000   0.000
   20       -0.000   0.000   0.000   0.000
   21       -0.000  -0.000   0.000  -0.000
   22        0.000  -0.000   0.000  -0.000
   23       -0.000   0.000   0.000   0.000
   24        0.000   0.000   0.000   0.000
   25        0.000   0.000   0.000   0.000
   26        0.000   0.000   0.000   0.000
   27        0.000   0.000   0.000   0.000
   28        0.000   0.000   0.000   0.000
   29        0.000   0.000   0.000   0.000
   30        0.000   0.000   0.000   0.000
   31        0.000   0.000   0.000   0.000
   32        0.000   0.000   0.000   0.000
   33        0.000   0.000   0.000   0.000
   34        0.000   0.000   0.000   0.000
   35        0.000   0.000   0.000   0.000
   36        0.000   0.000   0.000   0.000
   37        0.000   0.000   0.000   0.000
   38        0.000   0.000   0.000   0.000
   39       -0.000  -0.000   0.000  -0.000
   40       -0.000  -0.000   0.000  -0.000
   41       -0.000   0.000   0.000   0.000
   42       -0.000  -0.000   0.000  -0.000
   43       -0.000  -0.000   0.000  -0.000
   44       -0.000  -0.000   0.000  -0.000
   45       -0.000  -0.000   0.000  -0.000
   46        0.000   0.000   0.000   0.000
   47       -0.000  -0.000   0.000  -0.000
   48        0.000   0.000   0.000   0.000
   49       -0.000  -0.000   0.000  -0.000
   50       -0.000  -0.000   0.000  -0.000
   51        0.000   0.000   0.000   0.000
   52        0.000   0.000   0.000   0.000
   53        0.000   0.000   0.000   0.000
   54       -0.000  -0.000   0.000  -0.000
   55        0.000   0.000   0.000   0.000
   56        0.000   0.000   0.000   0.000
   57       -0.000  -0.000   0.000  -0.000
   58        0.000  -0.000   0.000  -0.000
   59        0.000   0.000   0.000   0.000
   60       -0.000  -0.000   0.000  -0.000
[...]
   68       -0.000  -0.000   0.000  -0.000
   69       -0.000   0.000   0.000   0.000
   70       -0.000  -0.000   0.000  -0.000
   71       -0.000  -0.000   0.000  -0.000
   72       -0.000   0.000   0.000   0.000
   73        0.004   0.011   0.000   0.015
   74        0.071   0.377   0.000   0.447
   75       -0.000   0.000   0.000   0.000
   76       -0.000  -0.000   0.000  -0.001
   77        0.001   0.030   0.000   0.031
   78       -0.000  -0.000   0.000  -0.001
   79        0.003   0.077   0.000   0.080
   80        0.003   0.077   0.000   0.080
   81        0.000   0.000   0.000   0.000
   82        0.000  -0.000   0.000   0.000
tot          0.082   0.570   0.000   0.652