 vasp.5.4.4.18Apr17-6-g9f103f2a35 (build May 01 2020 14:57:12) complex

 executed on             LinuxIFC date 2021.02.27  17:34:31

 INCAR:
 POTCAR:    PAW_PBE B 06Sep2000
 POTCAR:    PAW_PBE N 08Apr2002

 POTCAR:    PAW_PBE B 06Sep2000
   VRHFIN =B: s2p1

   TITEL  = PAW_PBE B 06Sep2000
   POMASS =   10.811; ZVAL   =    3.000    mass and valenz
   ENMAX  =  318.614; ENMIN  =  238.960 eV

 POTCAR:    PAW_PBE N 08Apr2002
   VRHFIN =N: s2p3

   TITEL  = PAW_PBE N 08Apr2002
   POMASS =   14.001; ZVAL   =    5.000    mass and valenz
   ENMAX  =  400.000; ENMIN  =  300.000 eV

 Optimization of the real space projectors (new method)

 maximal supplied QI-value         = 22.11
 optimisation between [QCUT,QGAM] = [ 11.94, 23.88] = [ 39.92,159.67] Ry
 Optimized for a Real-space Cutoff    1.18 Angstroem

   l    n(q)    QCUT    max X(q) W(low)/X(q) W(high)/X(q)  e(spline)
   0      8    11.939    53.033    0.11E-03    0.34E-03    0.60E-07
   0      8    11.939    34.740    0.11E-03    0.34E-03    0.59E-07
   1      8    11.939    30.949    0.22E-03    0.20E-03    0.17E-06
   1      8    11.939    19.518    0.20E-03    0.18E-03    0.16E-06
 Optimization of the real space projectors (new method)

 maximal supplied QI-value         = 25.13
 optimisation between [QCUT,QGAM] = [ 11.81, 23.88] = [ 39.08,159.64] Ry
 Optimized for a Real-space Cutoff    1.41 Angstroem

   l    n(q)    QCUT    max X(q) W(low)/X(q) W(high)/X(q)  e(spline)
   0     10    11.813    79.467    0.48E-04    0.30E-04    0.67E-06
   0     10    11.813    66.151    0.47E-04    0.30E-04    0.67E-06
   1     10    11.813    20.169    0.11E-03    0.17E-03    0.11E-05
   1     10    11.813    14.454    0.11E-03    0.17E-03    0.11E-05
  PAW_PBE B 06Sep2000                   :
  PAW_PBE N 08Apr2002                   :

 POSCAR: B N
  positions in direct lattice
  velocities in cartesian coordinates

 METAGGA = SCAN     LMAXTAU =  6    LMIXTAU =  F

 ion  position               nearest neighbor table
   1  0.111  0.056  0.500-  42 1.45  43 1.45  37 1.45
   2  0.111  0.222  0.500-  44 1.45  37 1.45  38 1.45
   3  0.111  0.389  0.500-  45 1.45  38 1.45  39 1.45
   4  0.111  0.556  0.500-  39 1.45  46 1.45  40 1.45
   5  0.111  0.722  0.500-  47 1.45  40 1.45  41 1.45
   6  0.111  0.889  0.500-  48 1.45  41 1.45  42 1.45
   7  0.278  0.056  0.500-  48 1.45  49 1.45  43 1.45
   8  0.278  0.222  0.500-  43 1.45  50 1.45  44 1.45
   9  0.278  0.389  0.500-  44 1.45  51 1.45  45 1.45
  10  0.278  0.556  0.500-  45 1.45  52 1.45  46 1.45
  11  0.278  0.722  0.500-  46 1.45  53 1.45  47 1.45
  12  0.278  0.889  0.500-  47 1.45  54 1.45  48 1.45
  13  0.444  0.056  0.500-  54 1.45  55 1.45  49 1.45
  14  0.444  0.222  0.500-  49 1.45  56 1.45  50 1.45
  15  0.444  0.389  0.500-  50 1.45  57 1.45  51 1.45
  16  0.444  0.556  0.500-  51 1.45  58 1.45  52 1.45
  17  0.444  0.722  0.500-  52 1.45  59 1.45  53 1.45
  18  0.444  0.889  0.500-  53 1.45  60 1.45  54 1.45
  19  0.611  0.056  0.500-  60 1.45  61 1.45  55 1.45
  20  0.611  0.222  0.500-  62 1.45  55 1.45  56 1.45
  21  0.611  0.389  0.500-  63 1.45  56 1.45  57 1.45
  22  0.611  0.556  0.500-  57 1.45  64 1.45  58 1.45
  23  0.611  0.722  0.500-  65 1.45  58 1.45  59 1.45
  24  0.611  0.889  0.500-  66 1.45  59 1.45  60 1.45
  25  0.778  0.056  0.500-  66 1.45  67 1.45  61 1.45
  26  0.778  0.222  0.500-  61 1.45  68 1.45  62 1.45
  27  0.778  0.389  0.500-  62 1.45  69 1.45  63 1.45
  28  0.778  0.556  0.500-  63 1.45  70 1.45  64 1.45
  29  0.778  0.722  0.500-  64 1.45  71 1.45  65 1.45
  30  0.778  0.889  0.500-  65 1.45  72 1.45  66 1.45
  31  0.944  0.056  0.500-  72 1.45  37 1.45  67 1.45
  32  0.944  0.222  0.500-  38 1.45  67 1.45  68 1.45
  33  0.944  0.389  0.500-  39 1.45  68 1.45  69 1.45
  34  0.944  0.556  0.500-  69 1.45  40 1.45  70 1.45
  35  0.944  0.722  0.500-  41 1.45  70 1.45  71 1.45
  36  0.944  0.889  0.500-  42 1.45  71 1.45  72 1.45
  37  0.056  0.111  0.500-   2 1.45  31 1.45   1 1.45
  38  0.056  0.278  0.500-  32 1.45   3 1.45   2 1.45
  39  0.056  0.444  0.500-  33 1.45   4 1.45   3 1.45
  40  0.056  0.611  0.500-   5 1.45  34 1.45   4 1.45
  41  0.056  0.778  0.500-  35 1.45   6 1.45   5 1.45
  42  0.056  0.944  0.500-  36 1.45   1 1.45   6 1.45
  43  0.222  0.111  0.500-   8 1.45   1 1.45   7 1.45
  44  0.222  0.278  0.500-   2 1.45   9 1.45   8 1.45
  45  0.222  0.444  0.500-   3 1.45  10 1.45   9 1.45
  46  0.222  0.611  0.500-  11 1.45   4 1.45  10 1.45
  47  0.222  0.778  0.500-   5 1.45  12 1.45  11 1.45
  48  0.222  0.944  0.500-   6 1.45   7 1.45  12 1.45
  49  0.389  0.111  0.500-  14 1.45   7 1.45  13 1.45
  50  0.389  0.278  0.500-   8 1.45  15 1.45  14 1.45
  51  0.389  0.444  0.500-   9 1.45  16 1.45  15 1.45
  52  0.389  0.611  0.500-  17 1.45  10 1.45  16 1.45
  53  0.389  0.778  0.500-  11 1.45  18 1.45  17 1.45
  54  0.389  0.944  0.500-  12 1.45  13 1.45  18 1.45
  55  0.556  0.111  0.500-  13 1.45  20 1.45  19 1.45
  56  0.556  0.278  0.500-  14 1.45  21 1.45  20 1.45
  57  0.556  0.444  0.500-  15 1.45  22 1.45  21 1.45
  58  0.556  0.611  0.500-  16 1.45  23 1.45  22 1.45
  59  0.556  0.778  0.500-  17 1.45  24 1.45  23 1.45
  60  0.556  0.944  0.500-  18 1.45  19 1.45  24 1.45
  61  0.722  0.111  0.500-  26 1.45  19 1.45  25 1.45
  62  0.722  0.278  0.500-  20 1.45  27 1.45  26 1.45
  63  0.722  0.444  0.500-  21 1.45  28 1.45  27 1.45
  64  0.722  0.611  0.500-  29 1.45  22 1.45  28 1.45
  65  0.722  0.778  0.500-  23 1.45  30 1.45  29 1.45
  66  0.722  0.944  0.500-  24 1.45  25 1.45  30 1.45
  67  0.889  0.111  0.500-  32 1.45  25 1.45  31 1.45
  68  0.889  0.278  0.500-  26 1.45  33 1.45  32 1.45
  69  0.889  0.444  0.500-  27 1.45  34 1.45  33 1.45
  70  0.889  0.611  0.500-  35 1.45  28 1.45  34 1.45
  71  0.889  0.778  0.500-  29 1.45  36 1.45  35 1.45
  72  0.889  0.944  0.500-  30 1.45  31 1.45  36 1.45

  LATTYP: Found a hexagonal cell.
 ALAT       =    15.0731507304
 C/A-ratio  =     2.3296167479

  Lattice vectors:

 A1 = (   7.5365500567, -13.0537460594,   0.0000000000)
 A2 = (   7.5365500567,  13.0537460594,   0.0000000000)
 A3 = (   0.0000000000,   0.0000000000,  35.1146643856)

Analysis of symmetry for initial positions (statically):
 Subroutine PRICEL returns following result:

  Warning from LATTYP: Got some problem with cell dimensions!
  Tried to take original basis but could not verify dimensions!
  LATTYP: Found a hexagonal cell.
 ALAT       =     2.5121833522
 C/A-ratio  =    13.9777474261

[...]

  36 primitive cells build up your supercell.

 Routine SETGRP: Setting up the symmetry group for a
 hexagonal supercell.

 Subroutine GETGRP returns: Found 12 space group operations
 (whereof 12 operations were pure point group operations)
 out of a pool of 24 trial point group operations.

The static configuration has the point symmetry D_3h.

Analysis of symmetry for dynamics (positions and initial velocities):
 Subroutine PRICEL returns following result:

[...]

The dynamic configuration has the point symmetry D_3h.

Analysis of constrained symmetry for selective dynamics:
 Subroutine PRICEL returns following result:

[...]

The constrained configuration has the point symmetry D_3h.

Analysis of structural, dynamic, and magnetic symmetry:
 Subroutine PRICEL returns following result:

  Warning from LATTYP: Got some problem with cell dimensions!
  Tried to take original basis but could not verify dimensions!
  LATTYP: Found a hexagonal cell.
 ALAT       =     2.5121833522
 C/A-ratio  =    13.9777474261

  Lattice vectors:

 A1 = (   2.5121833522,  -0.0000000000,   0.0000000000)
 A2 = (  -1.2560916761,  -2.1756243432,   0.0000000000)
 A3 = (   0.0000000000,   0.0000000000, -35.1146643856)

  36 primitive cells build up your supercell.

 Routine SETGRP: Setting up the symmetry group for a
 hexagonal supercell.

 Subroutine GETGRP returns: Found 12 space group operations
 (whereof 12 operations were pure point group operations)
 out of a pool of 24 trial point group operations.

The magnetic configuration has the point symmetry D_3h.

 Subroutine INISYM returns: Found 12 space group operations
 (whereof 12 operations are pure point group operations),
 and found    36 'primitive' translations

 KPOINTS: K-Point Grid

Automatic generation of k-mesh.
Space group operators:
 irot       det(A)        alpha          n_x          n_y          n_z        tau_x        tau_y        tau_z
    1     1.000000     0.000000     1.000000     0.000000     0.000000     0.000000     0.000000     0.000000
    2    -1.000000    60.000000     0.000000     0.000000    -1.000000     0.000000     0.000000     0.000000
    3     1.000000   120.000000     0.000000     0.000000    -1.000000     0.000000     0.000000     0.000000
    4    -1.000000   180.000000     0.000000     0.000000     1.000000     0.000000     0.000000     0.000000
    5     1.000000   120.000000     0.000000     0.000000     1.000000     0.000000     0.000000     0.000000
    6    -1.000000    60.000000     0.000000     0.000000     1.000000     0.000000     0.000000     0.000000
    7    -1.000000   180.000000     0.500002    -0.866024     0.000000     0.000000     0.000000     0.000000
    8     1.000000   180.000000     0.000000     1.000000     0.000000     0.000000     0.000000     0.000000
    9    -1.000000   180.000000    -0.500002    -0.866024     0.000000     0.000000     0.000000     0.000000
   10     1.000000   180.000000     0.866026     0.499998     0.000000     0.000000     0.000000     0.000000
   11    -1.000000   180.000000     1.000000     0.000000     0.000000     0.000000     0.000000     0.000000
   12     1.000000   180.000000     0.866026    -0.499998     0.000000     0.000000     0.000000     0.000000

 Subroutine IBZKPT returns following result:

 Found      3 irreducible k-points:

 Following reciprocal coordinates:
            Coordinates               Weight
  0.000000  0.000000  0.000000      1.000000
  0.333333  0.000000  0.000000      6.000000
  0.333333  0.333333  0.000000      2.000000

 Following cartesian coordinates:
            Coordinates               Weight
  0.000000  0.000000  0.000000      1.000000
  0.022114 -0.012768  0.000000      6.000000
  0.044229  0.000000  0.000000      2.000000

 SYSTEM =  SiC
 POSCAR =  B N

 Startparameter for this run:
   NWRITE =      2    write-flag & timer
   PREC   = accura    normal or accurate (medium, high low for compatibility)
   ISTART =      1    job   : 0-new  1-cont  2-samecut
   ICHARG =      0    charge: 1-file 2-atom 10-const
   ISPIN  =      2    spin polarized calculation?
   LNONCOLLINEAR =      F non collinear calculations
   LSORBIT =      F    spin-orbit coupling
   INIWAV =      1    electr: 0-lowe 1-rand  2-diag
   LASPH  =      T    aspherical Exc in radial PAW
   METAGGA=      F    non-selfconsistent MetaGGA calc.

 Electronic Relaxation 1
   ENCUT  =  550.0 eV  40.42 Ry    6.36 a.u.  28.82 28.82 67.15*2*pi/ulx,y,z
   ENINI  =  550.0     initial cutoff
   ENAUG  =  627.1 eV  augmentation charge cutoff
   NELM   =    100;   NELMIN=  2; NELMDL=  0     # of ELM steps
   EDIFF  = 0.1E-04   stopping-criterion for ELM
   LREAL  =      T    real-space projection
[...]
   0.141E-03 -.501E-03 -.435E-09   -.312E-10 0.777E-03 0.172E-17   0.174E-19 0.154E-18 0.373E-24   -.161E-09 -.180E-09 0.518E-12
   0.141E-03 -.501E-03 -.664E-09   -.837E-09 0.777E-03 0.231E-17   0.440E-19 0.185E-18 0.297E-24   -.161E-09 -.180E-09 0.518E-12
   0.141E-03 -.501E-03 -.507E-09   -.371E-10 0.777E-03 0.209E-17   -.150E-18 -.390E-19 0.233E-24   -.161E-09 -.180E-09 0.518E-12
   0.141E-03 -.501E-03 -.389E-09   -.310E-10 0.777E-03 0.607E-18   0.830E-19 0.216E-18 0.775E-25   -.161E-09 -.180E-09 0.518E-12
   0.141E-03 -.501E-03 -.328E-09   -.835E-09 0.777E-03 -.659E-18   -.131E-19 0.208E-18 0.533E-25   -.161E-09 -.180E-09 0.518E-12
   0.141E-03 -.501E-03 -.369E-09   0.773E-09 0.777E-03 -.968E-18   0.335E-19 0.476E-18 -.103E-24   -.162E-09 -.180E-09 0.520E-12
   0.141E-03 -.501E-03 -.497E-09   0.781E-09 0.777E-03 0.663E-18   0.169E-20 0.630E-18 0.401E-24   -.162E-09 -.180E-09 0.520E-12
   0.141E-03 -.501E-03 -.304E-09   -.250E-10 0.777E-03 0.176E-17   0.106E-18 0.154E-18 0.155E-24   -.161E-09 -.180E-09 0.520E-12
   0.141E-03 -.501E-03 -.438E-09   0.775E-09 0.777E-03 0.163E-17   0.169E-20 0.354E-18 0.129E-24   -.162E-09 -.180E-09 0.519E-12
   0.141E-03 -.501E-03 -.411E-09   0.781E-09 0.777E-03 0.549E-18   0.839E-19 -.334E-18 0.540E-24   -.162E-09 -.180E-09 0.519E-12
   0.141E-03 -.501E-03 -.451E-09   -.232E-10 0.777E-03 -.592E-18   -.296E-20 0.243E-18 -.333E-24   -.162E-09 -.180E-09 0.519E-12
   0.141E-03 -.501E-03 -.296E-09   0.138E-10 0.777E-03 -.272E-17   -.115E-18 -.195E-18 -.792E-24   -.161E-09 -.180E-09 0.521E-12
   0.141E-03 -.501E-03 -.336E-09   0.199E-10 0.777E-03 -.634E-18   -.343E-19 0.618E-18 -.155E-24   -.162E-09 -.180E-09 0.520E-12
   0.141E-03 -.501E-03 -.339E-09   -.784E-09 0.777E-03 0.521E-19   -.266E-18 0.339E-18 0.200E-24   -.161E-09 -.180E-09 0.521E-12
   0.141E-03 -.501E-03 -.299E-09   0.158E-10 0.777E-03 -.115E-18   -.593E-20 0.109E-18 0.414E-24   -.161E-09 -.180E-09 0.520E-12
   0.141E-03 -.501E-03 -.502E-09   0.201E-10 0.777E-03 -.146E-17   -.130E-18 0.191E-18 0.310E-24   -.162E-09 -.180E-09 0.520E-12
   0.141E-03 -.501E-03 -.288E-09   -.783E-09 0.777E-03 -.240E-17   0.800E-19 0.152E-19 0.349E-24   -.161E-09 -.180E-09 0.520E-12
   -.305E-02 0.482E-03 -.272E-10   -.246E-10 -.777E-03 -.317E-17   -.445E-20 -.509E-18 -.439E-24   0.116E-08 0.628E-09 0.884E-12
   -.305E-02 0.482E-03 -.269E-10   0.216E-09 -.777E-03 -.962E-18   0.110E-18 -.357E-18 -.414E-23   0.116E-08 0.628E-09 0.884E-12
   -.305E-02 0.482E-03 -.253E-10   -.110E-08 -.777E-03 0.759E-18   -.102E-18 -.317E-18 0.414E-23   0.116E-08 0.628E-09 0.884E-12
   -.305E-02 0.482E-03 -.292E-10   -.246E-10 -.777E-03 0.117E-18   -.184E-19 -.289E-18 -.362E-24   0.116E-08 0.628E-09 0.885E-12
   -.305E-02 0.482E-03 -.348E-10   0.216E-09 -.777E-03 -.170E-17   0.119E-18 -.792E-19 0.905E-24   0.116E-08 0.628E-09 0.884E-12
   -.305E-02 0.482E-03 -.310E-10   -.110E-08 -.777E-03 -.456E-17   -.119E-19 -.401E-18 0.171E-23   0.116E-08 0.628E-09 0.884E-12
   -.305E-02 0.482E-03 -.442E-11   0.111E-08 -.777E-03 -.249E-17   0.177E-18 -.401E-18 -.362E-23   0.116E-08 0.628E-09 0.879E-12
   -.305E-02 0.482E-03 -.109E-10   0.135E-08 -.777E-03 0.973E-18   0.843E-19 -.541E-18 -.266E-23   0.116E-08 0.628E-09 0.879E-12
   -.305E-02 0.482E-03 -.754E-11   0.345E-10 -.777E-03 0.177E-17   -.584E-19 -.244E-18 -.429E-23   0.116E-08 0.628E-09 0.878E-12
   -.305E-02 0.482E-03 -.553E-11   0.111E-08 -.777E-03 0.157E-17   0.803E-19 -.519E-18 0.209E-23   0.116E-08 0.628E-09 0.878E-12
   -.305E-02 0.482E-03 -.344E-11   0.135E-08 -.777E-03 -.135E-17   0.868E-20 -.143E-18 -.173E-23   0.116E-08 0.628E-09 0.878E-12
   -.305E-02 0.482E-03 -.372E-11   0.345E-10 -.777E-03 -.326E-17   0.995E-19 0.222E-18 -.111E-23   0.116E-08 0.628E-09 0.879E-12
   -.305E-02 0.482E-03 -.341E-10   -.220E-09 -.777E-03 -.172E-17   -.125E-19 -.250E-19 0.253E-23   0.116E-08 0.628E-09 0.877E-12
   -.305E-02 0.482E-03 -.344E-10   0.205E-10 -.777E-03 0.218E-17   0.139E-18 -.544E-18 0.775E-24   0.116E-08 0.628E-09 0.876E-12
   -.305E-02 0.482E-03 -.335E-10   -.130E-08 -.777E-03 0.369E-17   0.942E-19 -.587E-18 -.724E-24   0.116E-08 0.628E-09 0.876E-12
   -.305E-02 0.482E-03 -.328E-10   -.220E-09 -.777E-03 0.255E-17   -.690E-19 -.389E-18 -.279E-23   0.116E-08 0.628E-09 0.876E-12
   -.305E-02 0.482E-03 -.285E-10   0.204E-10 -.777E-03 0.134E-18   0.754E-19 -.551E-18 0.724E-24   0.116E-08 0.628E-09 0.876E-12
   -.305E-02 0.482E-03 -.290E-10   -.130E-08 -.777E-03 -.157E-17   -.758E-19 -.229E-18 -.620E-24   0.116E-08 0.628E-09 0.877E-12
   -.305E-02 0.482E-03 -.624E-10   -.122E-10 -.777E-03 -.592E-18   0.267E-19 0.352E-19 -.119E-23   0.116E-08 0.628E-09 0.879E-12
   -.305E-02 0.482E-03 -.667E-10   0.229E-09 -.777E-03 0.278E-17   0.212E-21 -.381E-19 0.103E-24   0.116E-08 0.628E-09 0.877E-12
   -.305E-02 0.482E-03 -.663E-10   -.109E-08 -.777E-03 0.426E-17   -.847E-21 -.428E-18 0.517E-25   0.116E-08 0.628E-09 0.876E-12
   -.305E-02 0.482E-03 -.630E-10   -.122E-10 -.777E-03 0.386E-17   -.159E-19 -.431E-18 -.265E-24   0.116E-08 0.628E-09 0.877E-12
   -.305E-02 0.482E-03 -.659E-10   0.229E-09 -.777E-03 0.344E-18   -.866E-19 -.349E-18 -.362E-23   0.116E-08 0.628E-09 0.876E-12
   -.305E-02 0.482E-03 -.626E-10   -.109E-08 -.777E-03 -.182E-17   -.498E-19 -.487E-18 0.248E-23   0.116E-08 0.628E-09 0.877E-12
   -.305E-02 0.482E-03 -.323E-10   0.112E-08 -.777E-03 -.210E-17   -.544E-19 -.446E-18 0.155E-24   0.116E-08 0.628E-09 0.879E-12
   -.305E-02 0.482E-03 -.312E-10   0.136E-08 -.777E-03 0.194E-17   0.385E-19 -.196E-18 -.269E-23   0.116E-08 0.628E-09 0.880E-12
   -.305E-02 0.482E-03 -.326E-10   0.380E-10 -.777E-03 0.339E-17   0.512E-19 -.212E-18 -.517E-25   0.116E-08 0.628E-09 0.878E-12
   -.305E-02 0.482E-03 -.299E-10   0.112E-08 -.777E-03 0.213E-17   -.120E-18 -.547E-18 0.724E-24   0.116E-08 0.628E-09 0.878E-12
   -.305E-02 0.482E-03 -.302E-10   0.136E-08 -.777E-03 -.829E-20   0.127E-18 -.459E-18 -.159E-23   0.116E-08 0.628E-09 0.878E-12
   -.305E-02 0.482E-03 -.292E-10   0.380E-10 -.777E-03 -.337E-17   0.417E-19 -.356E-18 -.548E-23   0.116E-08 0.628E-09 0.878E-12
   -.305E-02 0.482E-03 -.369E-10   -.212E-09 -.777E-03 -.344E-17   0.115E-18 -.298E-18 -.569E-23   0.116E-08 0.628E-09 0.881E-12
   -.305E-02 0.482E-03 -.340E-10   0.292E-10 -.777E-03 0.432E-18   -.116E-18 -.302E-18 0.305E-23   0.116E-08 0.628E-09 0.883E-12
   -.305E-02 0.482E-03 -.264E-10   -.129E-08 -.777E-03 0.216E-17   0.116E-18 -.113E-18 -.310E-23   0.116E-08 0.628E-09 0.883E-12
   -.305E-02 0.482E-03 -.253E-10   -.212E-09 -.777E-03 0.103E-17   -.392E-19 -.212E-18 0.944E-24   0.116E-08 0.628E-09 0.884E-12
   -.305E-02 0.482E-03 -.253E-10   0.292E-10 -.777E-03 -.105E-17   -.102E-18 -.628E-18 0.517E-25   0.116E-08 0.628E-09 0.880E-12
   -.305E-02 0.482E-03 -.305E-10   -.129E-08 -.777E-03 -.374E-17   0.158E-18 -.354E-18 -.672E-24   0.116E-08 0.628E-09 0.883E-12
   -.106E+00 -.113E-02 -.143E-06   -.231E-12 0.209E-12 0.308E-32   0.197E-18 -.383E-17 -.243E-22   0.359E-07 0.161E-07 0.503E-10

 POSITION                                       TOTAL-FORCE (eV/Angst)
      1.25610     -0.72521     17.55733        -0.000000     -0.000000      0.000000
      2.51219      1.45042     17.55733        -0.000000     -0.000000      0.000000
      3.76828      3.62604     17.55733        -0.000000     -0.000000      0.000000
      5.02437      5.80167     17.55733        -0.000000     -0.000000      0.000000
      6.28046      7.97729     17.55733        -0.000000     -0.000000      0.000000
      7.53656     10.15291     17.55733        -0.000000     -0.000000     -0.000000
      2.51219     -2.90083     17.55733        -0.000000     -0.000000     -0.000000
      3.76828     -0.72521     17.55733        -0.000000     -0.000000     -0.000000
      5.02437      1.45042     17.55733        -0.000000     -0.000000      0.000000
      6.28046      3.62604     17.55733        -0.000000     -0.000000      0.000000
      7.53656      5.80167     17.55733        -0.000000     -0.000000     -0.000000
      8.79265      7.97729     17.55733        -0.000000     -0.000000      0.000000
      3.76828     -5.07646     17.55733        -0.000000     -0.000000      0.000000
      5.02437     -2.90083     17.55733        -0.000000     -0.000000     -0.000000
      6.28046     -0.72521     17.55733        -0.000000     -0.000000     -0.000000
      7.53656      1.45042     17.55733        -0.000000     -0.000000      0.000000
      8.79265      3.62604     17.55733        -0.000000     -0.000000      0.000000
     10.04874      5.80167     17.55733        -0.000000     -0.000000      0.000000
      5.02437     -7.25208     17.55733        -0.000000     -0.000000     -0.000000
      6.28046     -5.07646     17.55733        -0.000000     -0.000000      0.000000
      7.53656     -2.90083     17.55733        -0.000000     -0.000000     -0.000000
      8.79265     -0.72521     17.55733        -0.000000     -0.000000     -0.000000
     10.04874      1.45042     17.55733        -0.000000     -0.000000      0.000000
     11.30483      3.62604     17.55733        -0.000000     -0.000000      0.000000
      6.28046     -9.42771     17.55733        -0.000000     -0.000000      0.000000
      7.53656     -7.25208     17.55733        -0.000000     -0.000000      0.000000
      8.79265     -5.07646     17.55733        -0.000000     -0.000000      0.000000
     10.04874     -2.90083     17.55733        -0.000000     -0.000000     -0.000000
     11.30483     -0.72521     17.55733        -0.000000     -0.000000     -0.000000
     12.56092      1.45042     17.55733        -0.000000     -0.000000      0.000000
      7.53656    -11.60333     17.55733        -0.000000     -0.000000      0.000000
      8.79265     -9.42771     17.55733        -0.000000     -0.000000      0.000000
     10.04874     -7.25208     17.55733        -0.000000     -0.000000      0.000000
     11.30483     -5.07646     17.55733        -0.000000     -0.000000      0.000000
     12.56092     -2.90083     17.55733        -0.000000     -0.000000     -0.000000
     13.81701     -0.72521     17.55733        -0.000000     -0.000000     -0.000000
      1.25610      0.72521     17.55733        -0.000000      0.000000     -0.000000
      2.51219      2.90083     17.55733        -0.000000      0.000000     -0.000000
      3.76828      5.07646     17.55733         0.000000      0.000000     -0.000000
      5.02437      7.25208     17.55733        -0.000000      0.000000      0.000000
      6.28046      9.42771     17.55733         0.000000      0.000000      0.000000
      7.53656     11.60333     17.55733         0.000000      0.000000     -0.000000
      2.51219     -1.45042     17.55733         0.000000      0.000000      0.000000
      3.76828      0.72521     17.55733         0.000000      0.000000     -0.000000
      5.02437      2.90083     17.55733         0.000000      0.000000     -0.000000
      6.28046      5.07646     17.55733        -0.000000      0.000000     -0.000000
      7.53656      7.25208     17.55733         0.000000      0.000000      0.000000
      8.79265      9.42771     17.55733         0.000000      0.000000      0.000000
      3.76828     -3.62604     17.55733         0.000000      0.000000      0.000000
      5.02437     -1.45042     17.55733         0.000000      0.000000     -0.000000
      6.28046      0.72521     17.55733        -0.000000      0.000000     -0.000000
      7.53656      2.90083     17.55733        -0.000000      0.000000     -0.000000
      8.79265      5.07646     17.55733         0.000000      0.000000     -0.000000
     10.04874      7.25208     17.55733         0.000000      0.000000     -0.000000
      5.02437     -5.80167     17.55733         0.000000      0.000000     -0.000000
      6.28046     -3.62604     17.55733        -0.000000      0.000000      0.000000
      7.53656     -1.45042     17.55733         0.000000      0.000000     -0.000000
      8.79265      0.72521     17.55733         0.000000      0.000000     -0.000000
     10.04874      2.90083     17.55733        -0.000000      0.000000     -0.000000
     11.30483      5.07646     17.55733         0.000000      0.000000     -0.000000
      6.28046     -7.97729     17.55733         0.000000      0.000000     -0.000000
      7.53656     -5.80167     17.55733         0.000000      0.000000     -0.000000
      8.79265     -3.62604     17.55733        -0.000000      0.000000      0.000000
     10.04874     -1.45042     17.55733         0.000000      0.000000     -0.000000
     11.30483      0.72521     17.55733        -0.000000      0.000000     -0.000000
     12.56092      2.90083     17.55733        -0.000000      0.000000     -0.000000
      7.53656    -10.15291     17.55733        -0.000000      0.000000     -0.000000
      8.79265     -7.97729     17.55733         0.000000      0.000000     -0.000000
     10.04874     -5.80167     17.55733        -0.000000      0.000000     -0.000000
     11.30483     -3.62604     17.55733         0.000000      0.000000      0.000000
     12.56092     -1.45042     17.55733         0.000000      0.000000     -0.000000
     13.81701      0.72521     17.55733        -0.000000      0.000000     -0.000000
    total drift:                               -0.106062     -0.001126     -0.000000

  FREE ENERGIE OF THE ION-ELECTRON SYSTEM (eV)
  free  energy   TOTEN  =      -699.60185894 eV

  energy  without entropy=     -699.60185894  energy(sigma->0) =     -699.60185894

 reached required accuracy - stopping structural energy minimisation
 writing wavefunctions

 total charge

[...]

 magnetization (x)

# of ion       s       p       d       tot
    1        0.000  -0.000   0.000  -0.000
    2        0.000  -0.000   0.000  -0.000
    3        0.000  -0.000   0.000  -0.000
    4        0.000  -0.000   0.000  -0.000
    5        0.000  -0.000   0.000  -0.000
    6        0.000  -0.000   0.000  -0.000
    7        0.000  -0.000   0.000  -0.000
    8        0.000  -0.000   0.000  -0.000
    9        0.000  -0.000   0.000  -0.000
   10        0.000  -0.000   0.000  -0.000
   11        0.000  -0.000   0.000  -0.000
   12        0.000  -0.000   0.000  -0.000
   13        0.000  -0.000   0.000  -0.000
   14        0.000  -0.000   0.000  -0.000
   15        0.000  -0.000   0.000  -0.000
   16        0.000  -0.000   0.000  -0.000
   17        0.000  -0.000   0.000  -0.000
   18        0.000  -0.000   0.000  -0.000
   19        0.000  -0.000   0.000  -0.000
   20        0.000  -0.000   0.000  -0.000
   21        0.000  -0.000   0.000  -0.000
   22        0.000  -0.000   0.000  -0.000
   23        0.000  -0.000   0.000  -0.000
   24        0.000  -0.000   0.000  -0.000
   25        0.000  -0.000   0.000  -0.000
   26        0.000  -0.000   0.000  -0.000
   27        0.000  -0.000   0.000  -0.000
   28        0.000  -0.000   0.000  -0.000
   29        0.000  -0.000   0.000  -0.000
   30        0.000  -0.000   0.000  -0.000
   31        0.000  -0.000   0.000  -0.000
   32        0.000  -0.000   0.000  -0.000
   33        0.000  -0.000   0.000  -0.000
   34        0.000  -0.000   0.000  -0.000
   35        0.000  -0.000   0.000  -0.000
   36        0.000  -0.000   0.000  -0.000
   37        0.000   0.000   0.000   0.000
   38        0.000   0.000   0.000   0.000
   39        0.000   0.000   0.000   0.000
   40        0.000   0.000   0.000   0.000
   41        0.000   0.000   0.000   0.000
   42        0.000   0.000   0.000   0.000
   43        0.000   0.000   0.000   0.000
   44        0.000   0.000   0.000   0.000
   45        0.000   0.000   0.000   0.000
   46        0.000   0.000   0.000   0.000
   47        0.000   0.000   0.000   0.000
   48        0.000   0.000   0.000   0.000
   49        0.000   0.000   0.000   0.000
   50        0.000   0.000   0.000   0.000
   51        0.000   0.000   0.000   0.000
   52        0.000   0.000   0.000   0.000
   53        0.000   0.000   0.000   0.000
   54        0.000   0.000   0.000   0.000
   55        0.000   0.000   0.000   0.000
   56        0.000   0.000   0.000   0.000
   57        0.000   0.000   0.000   0.000
   58        0.000   0.000   0.000   0.000
   59        0.000   0.000   0.000   0.000
   60        0.000   0.000   0.000   0.000
   61        0.000   0.000   0.000   0.000
   62        0.000   0.000   0.000   0.000
   63        0.000   0.000   0.000   0.000
   64        0.000   0.000   0.000   0.000
   65        0.000   0.000   0.000   0.000
   66        0.000   0.000   0.000   0.000
   67        0.000   0.000   0.000   0.000
   68        0.000   0.000   0.000   0.000
   69        0.000   0.000   0.000   0.000
   70        0.000   0.000   0.000   0.000
   71        0.000   0.000   0.000   0.000
   72        0.000   0.000   0.000   0.000
tot          0.000   0.000   0.000   0.000