 vasp.5.4.4.18Apr17-6-g9f103f2a35 (build Oct 02 2017 16:27:17) complex

 executed on             LinuxIFC date 2020.04.09  02:05:01

 INCAR:
 POTCAR:    PAW_PBE B 28Sep2005
 POTCAR:    PAW_PBE N_GW 10Apr2007

 POTCAR:    PAW_PBE B 28Sep2005
   VRHFIN =B: s2p1

   TITEL  = PAW_PBE B 28Sep2005
   POMASS =   10.811; ZVAL   =    3.000    mass and valenz
   ENMAX  =  318.614; ENMIN  =  238.960 eV

 POTCAR:    PAW_PBE N_GW 10Apr2007
   VRHFIN =N: s2p3

   TITEL  = PAW_PBE N_GW 10Apr2007
   POMASS =   14.001; ZVAL   =    5.000    mass and valenz
   ENMAX  =  420.902; ENMIN  =  315.677 eV

  PAW_PBE B 28Sep2005                   :
  PAW_PBE N_GW 10Apr2007                :

 POSCAR: B N
  positions in direct lattice
  velocities in cartesian coordinates
 exchange correlation table for  LEXCH =        8
   RHO(1)=    0.500       N(1)  =     2000
   RHO(2)=  100.500       N(2)  =     4000

 ion  position               nearest neighbor table
   1  0.333  0.667  0.111-   2 1.45   2 1.45   2 1.45
   2  0.667  0.333  0.111-   1 1.45   1 1.45   1 1.45

  LATTYP: Found a hexagonal cell.
 ALAT       =     2.5104528693
 C/A-ratio  =     5.9693414622

  Lattice vectors:

 A1 = (   1.2552264347,  -2.1741126873,   0.0000000000)
 A2 = (   1.2552264347,   2.1741126873,   0.0000000000)
 A3 = (   0.0000000000,   0.0000000000,  14.9857504017)

Analysis of symmetry for initial positions (statically):
 Subroutine PRICEL returns:
 Original cell was already a primitive cell.

 Routine SETGRP: Setting up the symmetry group for a
 hexagonal supercell.

 Subroutine GETGRP returns: Found 12 space group operations
 (whereof  6 operations were pure point group operations)
 out of a pool of 24 trial point group operations.

The static configuration has the point symmetry C_3v.
 The point group associated with its full space group is D_3h.

Analysis of symmetry for dynamics (positions and initial velocities):
 Subroutine PRICEL returns:
 Original cell was already a primitive cell.

[...]

The dynamic configuration has the point symmetry C_3v.
 The point group associated with its full space group is D_3h.

Analysis of constrained symmetry for selective dynamics:
 Subroutine PRICEL returns:
 Original cell was already a primitive cell.

[...]

The constrained configuration has the point symmetry C_3v.
 The point group associated with its full space group is D_3h.

Analysis of structural, dynamic, and magnetic symmetry:
 Subroutine PRICEL returns:
 Original cell was already a primitive cell.

 Routine SETGRP: Setting up the symmetry group for a
 hexagonal supercell.

 Subroutine GETGRP returns: Found 12 space group operations
 (whereof  6 operations were pure point group operations)
 out of a pool of 24 trial point group operations.

The magnetic configuration has the point symmetry C_3v.
 The point group associated with its full space group is D_3h.

 Subroutine INISYM returns: Found 12 space group operations
 (whereof  6 operations are pure point group operations),
 and found     1 'primitive' translations

 KPOINTS: 12x12x1

Automatic generation of k-mesh.
Space group operators:
 irot       det(A)        alpha          n_x          n_y          n_z        tau_x        tau_y        tau_z
    1     1.000000     0.000000     1.000000     0.000000     0.000000     0.000000     0.000000     0.000000
    2     1.000000   120.000000     0.000000     0.000000    -1.000000     0.000000     0.000000     0.000000
    3     1.000000   120.000000     0.000000     0.000000     1.000000     0.000000     0.000000     0.000000
    4    -1.000000   180.000000     0.499999    -0.866026     0.000000     0.000000     0.000000     0.000000
    5    -1.000000   180.000000    -0.499999    -0.866026     0.000000     0.000000     0.000000     0.000000
    6    -1.000000   180.000000     1.000000     0.000000     0.000000     0.000000     0.000000     0.000000
    7    -1.000000    60.000000     0.000000     0.000000    -1.000000     0.000000     0.000000     0.222825
    8    -1.000000   179.999999     0.000000     0.000000     1.000000     0.000000     0.000000     0.222825
    9    -1.000000    60.000000     0.000000     0.000000     1.000000     0.000000     0.000001     0.222825
   10     1.000000   180.000000     0.000000     1.000000     0.000000     0.000000     0.000000     0.222825
   11     1.000000   180.000000     0.866025     0.500001     0.000000     0.000000     0.000000     0.222825
   12     1.000000   180.000000     0.866025    -0.500001     0.000000     0.000000     0.000001     0.222825

 Subroutine IBZKPT returns following result:

 Found     19 irreducible k-points:

 Following reciprocal coordinates:
            Coordinates               Weight
  0.000000  0.000000  0.000000      1.000000
  0.083333 -0.000000  0.000000      6.000000
  0.166667  0.000000  0.000000      6.000000
  0.250000 -0.000000  0.000000      6.000000
  0.333333 -0.000000  0.000000      6.000000
  0.416667 -0.000000  0.000000      6.000000
  0.500000 -0.000000  0.000000      3.000000
  0.083333  0.083333  0.000000      6.000000
  0.166667  0.083333  0.000000     12.000000
  0.250000  0.083333  0.000000     12.000000
  0.333333  0.083333  0.000000     12.000000
  0.416667  0.083333  0.000000     12.000000
  0.166667  0.166667  0.000000      6.000000
  0.250000  0.166667  0.000000     12.000000
  0.333333  0.166667  0.000000     12.000000
  0.416667  0.166667  0.000000      6.000000
  0.250000  0.250000  0.000000      6.000000
  0.333333  0.250000  0.000000     12.000000
  0.333333  0.333333  0.000000      2.000000

 Following cartesian coordinates:
            Coordinates               Weight
  0.000000  0.000000  0.000000      1.000000
  0.033195 -0.019165  0.000000      6.000000
  0.066389 -0.038330  0.000000      6.000000
  0.099584 -0.057495  0.000000      6.000000
  0.132778 -0.076660  0.000000      6.000000
  0.165973 -0.095825  0.000000      6.000000
  0.199167 -0.114989  0.000000      3.000000
  0.066389  0.000000  0.000000      6.000000
  0.099584 -0.019165  0.000000     12.000000
  0.132778 -0.038330  0.000000     12.000000
  0.165973 -0.057495  0.000000     12.000000
  0.199167 -0.076660  0.000000     12.000000
  0.132778  0.000000  0.000000      6.000000
  0.165973 -0.019165  0.000000     12.000000
  0.199167 -0.038330  0.000000     12.000000
  0.232362 -0.057495  0.000000      6.000000
  0.199167  0.000000  0.000000      6.000000
  0.232362 -0.019165  0.000000     12.000000
  0.265556  0.000000  0.000000      2.000000

 SYSTEM =  hBN
 POSCAR =  B N

 Startparameter for this run:
   NWRITE =      2    write-flag & timer
   PREC   = accura    normal or accurate (medium, high low for compatibility)
   ISTART =      0    job   : 0-new  1-cont  2-samecut
   ICHARG =      2    charge: 1-file 2-atom 10-const
   ISPIN  =      2    spin polarized calculation?
   LNONCOLLINEAR =      F non collinear calculations
   LSORBIT =      F    spin-orbit coupling
   INIWAV =      1    electr: 0-lowe 1-rand  2-diag
   LASPH  =      F    aspherical Exc in radial PAW
   METAGGA=      F    non-selfconsistent MetaGGA calc.

 Electronic Relaxation 1
   ENCUT  =  650.0 eV  47.77 Ry    6.91 a.u.   5.22  5.22 31.15*2*pi/ulx,y,z
   ENINI  =  650.0     initial cutoff
   ENAUG  =  904.6 eV  augmentation charge cutoff
   NELM   =    100;   NELMIN=  2; NELMDL= -5     # of ELM steps
   EDIFF  = 0.1E-07   stopping-criterion for ELM
   LREAL  =      F    real-space projection
   NLSPLINE    = F    spline interpolate recip. space projectors
   LCOMPAT=      F    compatible to vasp.4.4
   GGA_COMPAT  = T    GGA compatible to vasp.4.4-vasp.4.6
   LMAXPAW     = -100 max onsite density
   LMAXMIX     =    2 max onsite mixed and CHGCAR
   VOSKOWN=      0    Vosko Wilk Nusair interpolation
   ROPT   =    0.00000   0.00000
 Ionic relaxation
   EDIFFG = -.1E-01   stopping-criterion for IOM
   NSW    =    100    number of steps for IOM
   NBLOCK =      1;   KBLOCK =    100    inner block; outer block
   IBRION =      2    ionic relax: 0-MD 1-quasi-New 2-CG
   NFREE  =      1    steps in history (QN), initial steepest desc. (CG)
   ISIF   =      2    stress and relaxation
   IWAVPR =     11    prediction:  0-non 1-charg 2-wave 3-comb
   ISYM   =      2    0-nonsym 1-usesym 2-fastsym
   LCORR  =      T    Harris-Foulkes like correction to forces

   POTIM  = 0.5000    time-step for ionic-motion
   TEIN   =    0.0    initial temperature
   TEBEG  =    0.0;   TEEND  =   0.0 temperature during run
   SMASS  =  -3.00    Nose mass-parameter (am)
   estimated Nose-frequenzy (Omega)   =  0.10E-29 period in steps =****** mass=  -0.144E-27a.u.
   SCALEE = 1.0000    scale energy and forces
   NPACO  =    256;   APACO  = 16.0  distance and # of slots for P.C.
   PSTRESS=    0.0 pullay stress

  Mass of Ions in am
   POMASS =  10.81 14.00
  Ionic Valenz
   ZVAL   =   3.00  5.00
  Atomic Wigner-Seitz radii
  virtual crystal weights
   VCA    =   1.00  1.00
   NELECT =       8.0000    total number of electrons
   NUPDOWN=      -1.0000    fix difference up-down

 DOS related values:
   EMIN   =  10.00;   EMAX   =-10.00  energy-range for DOS
   EFERMI =   0.00
   ISMEAR =     0;   SIGMA  =   0.05  broadening in eV -4-tet -1-fermi 0-gaus

 Electronic relaxation 2 (details)
   IALGO  =     68    algorithm
   LDIAG  =      T    sub-space diagonalisation (order eigenvalues)
   LSUBROT=      F    optimize rotation matrix (better conditioning)
   TURBO    =      0    0=normal 1=particle mesh
   IRESTART =      0    0=no restart 2=restart with 2 vectors
   NREBOOT  =      0    no. of reboots
   NMIN     =      0    reboot dimension
   EREF     =   0.00    reference energy to select bands
   IMIX   =      4    mixing-type and parameters
     AMIX     =   0.40;   BMIX     =  1.00
     AMIX_MAG =   1.60;   BMIX_MAG =  1.00
     AMIN     =   0.10
     WC   =   100.;   INIMIX=   1;  MIXPRE=   1;  MAXMIX= -45

 Intra band minimization:
   WEIMIN = 0.0010     energy-eigenvalue tresh-hold
   EBREAK =  0.21E-09  absolut break condition
   DEPER  =   0.30     relativ break condition

   TIME   =   0.40     timestep for ELM

  volume/ion in A,a.u.               =      40.90       275.98
  Fermi-wavevector in a.u.,A,eV,Ry     =   0.754282  1.425387  7.740924  0.568942
  Thomas-Fermi vector in A             =   1.851914

 Write flags
   LWAVE        =      T    write WAVECAR
   LDOWNSAMPLE  =      F    k-point downsampling of WAVECAR
   LCHARG       =      T    write CHGCAR
   LVTOT        =      F    write LOCPOT, total local potential
   LVHAR        =      F    write LOCPOT, Hartree potential only
   LELF         =      F    write electronic localiz. function (ELF)
   LORBIT       =     11    0 simple, 1 ext, 2 COOP (PROOUT), +10 PAW based schemes

 Dipole corrections
   LMONO  =      F    monopole corrections only (constant potential shift)
   LDIPOL =      T    correct potential (dipole corrections)
   IDIPOL =      3    1-x, 2-y, 3-z, 4-all directions
   EPSILON=  1.0000000 bulk dielectric constant

 Exchange correlation treatment:
   GGA     =    --    GGA type
   VOSKOWN=      0    Vosko Wilk Nusair interpolation
   LHFCALC =     F    Hartree Fock is set to
   LHFONE  =     F    Hartree Fock one center treatment
   AEXX    =    0.0000 exact exchange contribution

 Linear response parameters
   LEPSILON=     F    determine dielectric tensor
   LRPA    =     F    only Hartree local field effects (RPA)
   LNABLA  =     F    use nabla operator in PAW spheres
   LVEL    =     F    velocity operator in full k-point grid
   LINTERFAST=   F  fast interpolation
   KINTER  =     0    interpolate to denser k-point grid
   CSHIFT  =0.1000    complex shift for real part using Kramers Kronig
   OMEGAMAX=  -1.0    maximum frequency
   DEG_THRESHOLD= 0.2000000E-02 threshold for treating states as degnerate
   RTIME   =   -0.100 relaxation time in fs
  (WPLASMAI=    0.000 imaginary part of plasma frequency in eV, 0.658/RTIME)
   DFIELD  = 0.0000000 0.0000000 0.0000000 field for delta impulse in time

 Orbital magnetization related:
   ORBITALMAG=     F  switch on orbital magnetization
   LCHIMAG   =     F  perturbation theory with respect to B field
   DQ        =  0.001000  dq finite difference perturbation B field
   LLRAUG    =     F  two centre corrections for induced B field

 conjugate gradient relaxation of ions
   using selective dynamics as specified on POSCAR
 charge density and potential will be updated during run
 spin polarized calculation
 RMM-DIIS sequential band-by-band and
  variant of blocked Davidson during initial phase
 perform sub-space diagonalisation
    before iterative eigenvector-optimisation
 modified Broyden-mixing scheme, WC =      100.0
 initial mixing is a Kerker type mixing with AMIX =  0.4000 and BMIX =      1.0000
 Hartree-type preconditioning will be used
 using additional bands            8
 reciprocal scheme for non local part
 calculate Harris-corrections to forces
   (improved forces if not selfconsistent)
 use gradient corrections
 use of overlap-Matrix (Vanderbilt PP)
 Gauss-broadening in eV      SIGMA  =   0.05

  energy-cutoff  :      650.00
  volume of cell :       81.79
      direct lattice vectors                 reciprocal lattice vectors
     1.255226435 -2.174112687  0.000000000     0.398334505 -0.229978880  0.000000000
     1.255226435  2.174112687  0.000000000     0.398334505  0.229978880  0.000000000
     0.000000000  0.000000000 14.985750402     0.000000000  0.000000000  0.066730058

  length of vectors
     2.510450035  2.510450035 14.985750402     0.459957240  0.459957240  0.066730058

 k-points in units of 2pi/SCALE and weight: 12x12x1
   0.00000000  0.00000000  0.00000000       0.007
   0.03319454 -0.01916491  0.00000000       0.042
   0.06638908 -0.03832981  0.00000000       0.042
   0.09958363 -0.05749472  0.00000000       0.042
   0.13277817 -0.07665963  0.00000000       0.042
   0.16597271 -0.09582453  0.00000000       0.042
   0.19916725 -0.11498944  0.00000000       0.021
   0.06638908  0.00000000  0.00000000       0.042
   0.09958363 -0.01916491  0.00000000       0.083
   0.13277817 -0.03832981  0.00000000       0.083
   0.16597271 -0.05749472  0.00000000       0.083
   0.19916725 -0.07665963  0.00000000       0.083
   0.13277817  0.00000000  0.00000000       0.042
   0.16597271 -0.01916491  0.00000000       0.083
   0.19916725 -0.03832981  0.00000000       0.083
   0.23236179 -0.05749472  0.00000000       0.042
   0.19916725  0.00000000  0.00000000       0.042
   0.23236179 -0.01916491  0.00000000       0.083
   0.26555634  0.00000000  0.00000000       0.014

 k-points in reciprocal lattice and weights: 12x12x1
   0.00000000  0.00000000  0.00000000       0.007
   0.08333333 -0.00000000  0.00000000       0.042
   0.16666667  0.00000000  0.00000000       0.042
   0.25000000 -0.00000000  0.00000000       0.042
   0.33333333 -0.00000000  0.00000000       0.042
   0.41666667 -0.00000000  0.00000000       0.042
   0.50000000 -0.00000000  0.00000000       0.021
   0.08333333  0.08333333  0.00000000       0.042
   0.16666667  0.08333333  0.00000000       0.083
   0.25000000  0.08333333  0.00000000       0.083
   0.33333333  0.08333333  0.00000000       0.083
   0.41666667  0.08333333  0.00000000       0.083
   0.16666667  0.16666667  0.00000000       0.042
   0.25000000  0.16666667  0.00000000       0.083
   0.33333333  0.16666667  0.00000000       0.083
   0.41666667  0.16666667  0.00000000       0.042
   0.25000000  0.25000000  0.00000000       0.042
   0.33333333  0.25000000  0.00000000       0.083
   0.33333333  0.33333333  0.00000000       0.014

 position of ions in fractional coordinates (direct lattice)
   0.33333306  0.66666686  0.11141238
   0.66666686  0.33333306  0.11141238

 position of ions in cartesian coordinates  (Angst):
   1.25522634  0.72470526  1.66959805
   1.25522634 -0.72470526  1.66959805

 k-point  1 :   0.0000 0.0000 0.0000  plane waves:    3063
 k-point  2 :   0.0833-0.0000 0.0000  plane waves:    3057
 k-point  3 :   0.1667 0.0000 0.0000  plane waves:    3081
 k-point  4 :   0.2500-0.0000 0.0000  plane waves:    3081
 k-point  5 :   0.3333-0.0000 0.0000  plane waves:    3087
 k-point  6 :   0.4167-0.0000 0.0000  plane waves:    3091
 k-point  7 :   0.5000-0.0000 0.0000  plane waves:    3092
 k-point  8 :   0.0833 0.0833 0.0000  plane waves:    3079
 k-point  9 :   0.1667 0.0833 0.0000  plane waves:    3079
 k-point 10 :   0.2500 0.0833 0.0000  plane waves:    3080
 k-point 11 :   0.3333 0.0833 0.0000  plane waves:    3080
 k-point 12 :   0.4167 0.0833 0.0000  plane waves:    3086
 k-point 13 :   0.1667 0.1667 0.0000  plane waves:    3069
 k-point 14 :   0.2500 0.1667 0.0000  plane waves:    3069
 k-point 15 :   0.3333 0.1667 0.0000  plane waves:    3081
 k-point 16 :   0.4167 0.1667 0.0000  plane waves:    3076
 k-point 17 :   0.2500 0.2500 0.0000  plane waves:    3065
 k-point 18 :   0.3333 0.2500 0.0000  plane waves:    3068
 k-point 19 :   0.3333 0.3333 0.0000  plane waves:    3051

 maximum and minimum number of plane-waves per node :      3092     3051

 maximum number of plane-waves:      3092
 maximum index in each direction:
   IXMAX=    5   IYMAX=    5   IZMAX=   31
   IXMIN=   -5   IYMIN=   -5   IZMIN=  -31

 serial   3D FFT for wavefunctions
 parallel 3D FFT for charge:
    minimum data exchange during FFTs selected (reduces bandwidth)

 Broyden mixing: mesh for mixing (old mesh)
   NGX = 11   NGY = 11   NGZ = 63
  (NGX  = 48   NGY  = 48   NGZ  =252)
  gives a total of   7623 points

 initial charge density was supplied:
 charge density of overlapping atoms calculated
 number of electron       8.0000000 magnetization       2.0000000
 keeping initial charge density in first step

 Maximum index for augmentation-charges         2246 (set IRDMAX)

 First call to EWALD:  gamma=   0.408
 Maximum number of real-space cells 5x 5x 1
 Maximum number of reciprocal cells 2x 2x 8

--------------------------------------- Iteration      1(   1)  ---------------------------------------

 eigenvalue-minimisations  :   912
 total energy-change (2. order) : 0.5338963E+02  (-0.3932471E+03)
 number of electron       8.0000000 magnetization       2.0000000
 augmentation part        8.0000000 magnetization       2.0000000

 DIPCOR: dipole corrections for dipol
 direction  3 min pos   155,
 dipolmoment           0.000000      0.000000     -0.000000 electrons x Angstroem
 Tr[quadrupol]        -9.936068

 energy correction for charged system         0.000000 eV
 dipol+quadrupol energy correction           -0.000000 eV
 added-field ion interaction          0.000000 eV  (added to PSCEN)

 Free energy of the ion-electron system (eV)
  alpha Z        PSCENC =         4.26537650
  Ewald energy   TEWEN  =       781.34178655
  -Hartree energ DENC   =     -1037.97057037
  -exchange      EXHF   =         0.00000000
  -V(xc)+E(xc)   XCENC  =        29.07045294
  PAW double counting   =       246.56844936     -248.48689232
  entropy T*S    EENTRO =        -0.00139748
  eigenvalues    EBANDS =       -57.10789688
  atomic energy  EATOM  =       335.71032239
  Solvation  Ediel_sol  =         0.00000000
  free energy    TOTEN  =        53.38963069 eV

  energy without entropy =       53.39102817  energy(sigma->0) =       53.39032943

[...]

 eigenvalue-minimisations  :  1140
 total energy-change (2. order) :-0.6885122E+02  (-0.6480450E+02)
 number of electron       8.0000000 magnetization       2.0000000
 augmentation part        8.0000000 magnetization       2.0000000

[...]

 Broyden mixing:
  rms(total) = 0.10182E+01    rms(broyden)= 0.10181E+01
  rms(prec ) = 0.11131E+01
  weight for this iteration     100.00

[...]

 eigenvalues of (default mixing * dielectric matrix)
  average eigenvalue GAMMA=   1.0952
  1.0952

[...]

 eigenvalue-minimisations  :   912
 total energy-change (2. order) : 0.1378090E-03  (-0.4255789E-04)
 number of electron       8.0000000 magnetization      -0.0013186
 augmentation part        0.1496777 magnetization      -0.0012698

[...]

 Broyden mixing:
  rms(total) = 0.72305E-05    rms(broyden)= 0.72288E-05
  rms(prec ) = 0.92691E-05
  weight for this iteration     100.00

 eigenvalues of (default mixing * dielectric matrix)
  average eigenvalue GAMMA=   1.9423
  9.3712  4.0956  4.0956  3.3958  2.5960  2.5960  2.2084  1.6058  1.0848  1.0848
  1.0599  1.0098  0.8680  0.8680  0.8993  0.7346  0.7056  0.6588  0.6290  0.6062
  0.6156

[...]

--------------------------------------- Iteration      1(  27)  ---------------------------------------

 eigenvalue-minimisations  :   757
 total energy-change (2. order) :-0.9188284E-08  (-0.2657619E-09)
 number of electron       8.0000000 magnetization      -0.0000007
 augmentation part        0.1495228 magnetization      -0.0000007

 DIPCOR: dipole corrections for dipol
 direction  3 min pos   148,
 dipolmoment           0.000000      0.000000      0.000012 electrons x Angstroem
 Tr[quadrupol]       -10.542195

 energy correction for charged system         0.000000 eV
 dipol+quadrupol energy correction           -0.000000 eV
 added-field ion interaction         -0.000090 eV  (added to PSCEN)

 Free energy of the ion-electron system (eV)
  alpha Z        PSCENC =         4.26528698
  Ewald energy   TEWEN  =       781.34178655
  -Hartree energ DENC   =     -1078.03131230
  -exchange      EXHF   =         0.00000000
  -V(xc)+E(xc)   XCENC  =        30.22127340
  PAW double counting   =       421.16236585     -423.16899776
  entropy T*S    EENTRO =        -0.00000000
  eigenvalues    EBANDS =       -89.12248995
  atomic energy  EATOM  =       335.71032239
  Solvation  Ediel_sol  =         0.00000000
  free energy    TOTEN  =       -17.62176484 eV

  energy without entropy =      -17.62176484  energy(sigma->0) =      -17.62176484

 average (electrostatic) potential at core
  the test charge radii are     0.7672  0.5902
  (the norm of the test charge is              1.0000)
       1 -35.1979       2 -70.2067

 E-fermi :  -3.8038     XC(G=0):  -2.7879     alpha+bet : -2.4293

 spin component 1

 k-point     1 :       0.0000    0.0000    0.0000
  band No.  band energies     occupation
      1     -21.6490      1.00000
      2      -9.2302      1.00000
      3      -5.3711      1.00000
      4      -5.3710      1.00000
      5       0.6621      0.00000
      6       1.6632      0.00000
      7       2.2017      0.00000
      8       3.9937      0.00000
      9       4.6618      0.00000
     10       7.3889      0.00000
     11       7.5153      0.00000
     12       7.5154      0.00000

[...]

 spin component 2

[...]

 k-point    19 :       0.3333    0.3333    0.0000
  band No.  band energies     occupation
      1     -18.0090      1.00000
      2     -11.8914      1.00000
      3     -11.1856      1.00000
      4      -4.0225      1.00000
      5       0.6625      0.00000
      6       8.3351      0.00000
      7       9.2806      0.00000
      8      10.5696      0.00000
      9      11.0985      0.00000
     10      11.9346      0.00000
     11      12.4372      0.00000
     12      13.6419      0.00000

 soft charge-density along one line, spin component           1
         0         1         2         3         4         5         6         7         8         9
 total charge-density along one line

 soft charge-density along one line, spin component           2
         0         1         2         3         4         5         6         7         8         9
 total charge-density along one line

------------------------ aborting loop because EDIFF is reached ----------------------------------------

 total charge

# of ion       s       p       d       tot
    1        0.702   1.307   0.000   2.009
    2        1.183   2.703   0.000   3.886
tot          1.884   4.010   0.000   5.895

 magnetization (x)

[...]

  FORCE on cell =-STRESS in cart. coord.  units (eV):
  Direction    XX          YY          ZZ          XY          YZ          ZX
  Alpha Z     4.26538     4.26538     4.26538
  Ewald    1053.11499  1053.11437 -1324.88759    -0.00000    -0.00000     0.00000
  Hartree  1048.94473  1048.94472 -1019.85795     0.00000    -0.00000    -0.00000
  E(xc)     -30.85967   -30.85967   -31.93232     0.00000     0.00000    -0.00000
  Local   -2187.37745 -2187.37703  2244.10731     0.00000    -0.00000     0.00000
  n-local   -19.40937   -18.48542   -18.78878     0.09305    -0.00000     0.00000
  augment    -0.23488    -0.23487    -0.17593     0.00000     0.00000     0.00000
  Kinetic   132.60418   129.61032   147.25706     1.20329     0.00000    -0.00000
  Fock        0.00000     0.00000     0.00000     0.00000     0.00000     0.00000
  Total       0.01285     0.01285    -0.01283    -0.00000     0.00000     0.00000
  in kB       0.25175     0.25175    -0.25131    -0.00000     0.00000     0.00000

 VOLUME and BASIS-vectors are now :
  energy-cutoff  :      650.00
  volume of cell :       81.79
      direct lattice vectors                 reciprocal lattice vectors
     1.255226435 -2.174112687  0.000000000     0.398334505 -0.229978880  0.000000000
     1.255226435  2.174112687  0.000000000     0.398334505  0.229978880  0.000000000
     0.000000000  0.000000000 14.985750402     0.000000000  0.000000000  0.066730058

  length of vectors
     2.510450035  2.510450035 14.985750402     0.459957240  0.459957240  0.066730058

 FORCES acting on ions
    electron-ion (+dipol)            ewald-force                    non-local-force                 convergence-correction
   -.245E-05 -.134E-03 0.822E-04   0.460E-14 -.279E-04 0.847E-21   -.555E-16 0.222E-15 0.106E-21   -.292E-11 0.519E-09 0.139E-09
   0.628E-04 0.747E-03 0.157E-03   -.880E-14 0.279E-04 -.847E-21   -.139E-16 0.139E-16 -.678E-20   0.150E-10 0.206E-09 -.646E-10
   0.603E-04 0.612E-03 0.240E-03   -.420E-14 -.888E-15 0.000E+00   -.694E-16 0.236E-15 -.667E-20   0.120E-10 0.724E-09 0.740E-10

 POSITION                                       TOTAL-FORCE (eV/Angst)
      1.25523      0.72471      1.66960         0.000000     -0.000000      0.000000
      1.25523     -0.72471      1.66960        -0.000000      0.000000     -0.000000
    total drift:                                0.000060      0.000612      0.000240

  FREE ENERGIE OF THE ION-ELECTRON SYSTEM (eV)
  free  energy   TOTEN  =       -17.62176484 eV

  energy  without entropy=      -17.62176484  energy(sigma->0) =      -17.62176484

 reached required accuracy - stopping structural energy minimisation
 writing wavefunctions

 total charge

[...]

 magnetization (x)

# of ion       s       p       d       tot
    1       -0.000   0.000   0.000   0.000
    2       -0.000  -0.000   0.000  -0.000
tot         -0.000  -0.000   0.000  -0.000