 vasp.5.4.4.18Apr17-6-g9f103f2a35 (build May 01 2020 14:57:12) complex

 executed on             LinuxIFC date 2021.12.06  15:49:52

 INCAR:
 POTCAR:    PAW_PBE B 06Sep2000
 POTCAR:    PAW_PBE N 08Apr2002
 POTCAR:    PAW_PBE C 08Apr2002
 POTCAR:    PAW_PBE F 08Apr2002
 POTCAR:    PAW_PBE O 08Apr2002

 POTCAR:    PAW_PBE B 06Sep2000
   VRHFIN =B: s2p1

   TITEL  = PAW_PBE B 06Sep2000
   POMASS =   10.811; ZVAL   =    3.000    mass and valenz
   ENMAX  =  318.614; ENMIN  =  238.960 eV

 POTCAR:    PAW_PBE N 08Apr2002
   VRHFIN =N: s2p3

   TITEL  = PAW_PBE N 08Apr2002
   POMASS =   14.001; ZVAL   =    5.000    mass and valenz
   ENMAX  =  400.000; ENMIN  =  300.000 eV

 POTCAR:    PAW_PBE C 08Apr2002
   VRHFIN =C: s2p2

[...]

 POTCAR:    PAW_PBE F 08Apr2002
   VRHFIN =F: s2p5

[...]

 POTCAR:    PAW_PBE O 08Apr2002
   VRHFIN =O: s2p4

   TITEL  = PAW_PBE O 08Apr2002
   POMASS =   16.000; ZVAL   =    6.000    mass and valenz
   ENMAX  =  400.000; ENMIN  =  300.000 eV

 Optimization of the real space projectors (new method)

 maximal supplied QI-value         = 22.11
 optimisation between [QCUT,QGAM] = [ 11.94, 23.88] = [ 39.92,159.67] Ry
 Optimized for a Real-space Cutoff    1.18 Angstroem

   l    n(q)    QCUT    max X(q) W(low)/X(q) W(high)/X(q)  e(spline)
   0      8    11.939    53.033    0.11E-03    0.34E-03    0.60E-07
   0      8    11.939    34.740    0.11E-03    0.34E-03    0.59E-07
   1      8    11.939    30.949    0.22E-03    0.20E-03    0.17E-06
   1      8    11.939    19.518    0.20E-03    0.18E-03    0.16E-06
 Optimization of the real space projectors (new method)

[...]

   l    n(q)    QCUT    max X(q) W(low)/X(q) W(high)/X(q)  e(spline)
   0      8    11.883    14.049    0.56E-04    0.86E-04    0.22E-06
   0      8    11.883     8.945    0.81E-04    0.11E-03    0.30E-06
   1      8    11.883     7.086    0.16E-03    0.15E-04    0.31E-06
   1      8    11.883     6.747    0.15E-03    0.14E-04    0.28E-06
 Optimization of the real space projectors (new method)

 maximal supplied QI-value         = 24.76
 optimisation between [QCUT,QGAM] = [ 11.88, 24.01] = [ 39.54,161.47] Ry
 Optimized for a Real-space Cutoff    1.18 Angstroem

   l    n(q)    QCUT    max X(q) W(low)/X(q) W(high)/X(q)  e(spline)
   0      8    11.883    20.381    0.86E-04    0.11E-03    0.31E-06
   0      8    11.883    15.268    0.94E-04    0.12E-03    0.33E-06
   1      8    11.883     5.964    0.19E-03    0.18E-04    0.33E-06
   1      8    11.883     5.382    0.17E-03    0.20E-04    0.29E-06
  PAW_PBE B 06Sep2000                   :
  PAW_PBE N 08Apr2002                   :
  PAW_PBE C 08Apr2002                   :
  PAW_PBE F 08Apr2002                   :
  PAW_PBE O 08Apr2002                   :

 POSCAR: B N C F O
  positions in direct lattice
  velocities in cartesian coordinates

 METAGGA = SCAN     LMAXTAU =  6    LMIXTAU =  F

 ion  position               nearest neighbor table
   1  0.111  0.056  0.500-  43 1.45  37 1.45  42 1.45
   2  0.111  0.222  0.500-  44 1.45  38 1.45  37 1.45
   3  0.111  0.389  0.500-  45 1.45  38 1.45  39 1.45
   4  0.111  0.556  0.500-  46 1.45  39 1.45  40 1.45
   5  0.111  0.722  0.500-  47 1.45  40 1.45  41 1.45
   6  0.111  0.889  0.500-  41 1.45  42 1.45  48 1.45
   7  0.278  0.056  0.500-  49 1.45  43 1.45  48 1.45
   8  0.278  0.222  0.500-  50 1.45  44 1.45  43 1.45
   9  0.278  0.389  0.500-  51 1.45  45 1.45  44 1.45
  10  0.278  0.555  0.500-  52 1.45  45 1.45  46 1.45
  11  0.278  0.722  0.500-  53 1.45  46 1.45  47 1.45
  12  0.278  0.889  0.500-  54 1.45  47 1.45  48 1.45
  13  0.444  0.055  0.500-  54 1.45  49 1.45  55 1.45
  14  0.444  0.222  0.500-  50 1.45  56 1.45  49 1.45
  15  0.445  0.389  0.499-  51 1.45  57 1.45  50 1.45
  16  0.445  0.555  0.499-  52 1.45  58 1.45  51 1.45
  17  0.444  0.722  0.500-  52 1.45  59 1.45  53 1.45
  18  0.444  0.889  0.500-  53 1.45  60 1.45  54 1.45
  19  0.611  0.055  0.500-  60 1.45  55 1.45  61 1.45
  20  0.611  0.222  0.500-  56 1.45  55 1.45  62 1.45
  21  0.611  0.389  0.499-  57 1.45  63 1.45  56 1.45
  22  0.611  0.556  0.499-  58 1.45  57 1.45  64 1.45
  23  0.611  0.722  0.500-  58 1.45  59 1.45  65 1.45
  24  0.611  0.889  0.500-  59 1.45  66 1.45  60 1.45
  25  0.778  0.055  0.500-  66 1.45  61 1.45  67 1.45
  26  0.778  0.222  0.500-  62 1.45  68 1.45  61 1.45
  27  0.778  0.389  0.500-  63 1.45  69 1.45  62 1.45
  28  0.778  0.556  0.500-  64 1.45  70 1.45  63 1.45
  29  0.778  0.722  0.500-  64 1.45  65 1.45  71 1.45
  30  0.778  0.889  0.500-  65 1.45  66 1.45  72 1.45
  31  0.944  0.056  0.500-  67 1.45  72 1.45  37 1.45
  32  0.944  0.222  0.500-  38 1.45  67 1.45  68 1.45
  33  0.944  0.389  0.500-  39 1.45  69 1.45  68 1.45
  34  0.944  0.556  0.500-  40 1.45  70 1.45  69 1.45
  35  0.944  0.722  0.500-  70 1.45  71 1.45  41 1.45
  36  0.944  0.889  0.500-  71 1.45  72 1.45  42 1.45
  37  0.056  0.111  0.500-   1 1.45   2 1.45  31 1.45
  38  0.056  0.278  0.500-  32 1.45   2 1.45   3 1.45
  39  0.056  0.444  0.500-  33 1.45   4 1.45   3 1.45
  40  0.056  0.611  0.500-  34 1.45   5 1.45   4 1.45
  41  0.056  0.778  0.500-  35 1.45   6 1.45   5 1.45
  42  0.055  0.945  0.500-   1 1.45   6 1.45  36 1.45
  43  0.222  0.111  0.500-   7 1.45   1 1.45   8 1.45
  44  0.222  0.278  0.500-   2 1.45   8 1.45   9 1.45
  45  0.222  0.444  0.500-   3 1.45  10 1.45   9 1.45
  46  0.222  0.611  0.500-   4 1.45  11 1.45  10 1.45
  47  0.222  0.778  0.500-  12 1.45   5 1.45  11 1.45
  48  0.222  0.944  0.500-   7 1.45   6 1.45  12 1.45
  49  0.389  0.111  0.500-  13 1.45   7 1.45  14 1.45
  50  0.389  0.278  0.499-  14 1.45   8 1.45  15 1.45
  51  0.389  0.444  0.499-  15 1.45   9 1.45  16 1.45
  52  0.389  0.611  0.499-  10 1.45  17 1.45  16 1.45
  53  0.389  0.778  0.500-  18 1.45  11 1.45  17 1.45
  54  0.389  0.944  0.500-  13 1.45  12 1.45  18 1.45
  55  0.555  0.111  0.500-  13 1.45  19 1.45  20 1.45
  56  0.556  0.278  0.500-  20 1.45  14 1.45  21 1.45
  57  0.556  0.444  0.498-  21 1.45  22 1.45  15 1.45
  58  0.556  0.611  0.499-  22 1.45  23 1.45  16 1.45
  59  0.556  0.778  0.500-  24 1.45  23 1.45  17 1.45
  60  0.555  0.944  0.500-  19 1.45  18 1.45  24 1.45
[...]
  68  0.889  0.278  0.500-  32 1.45  26 1.45  33 1.45
  69  0.889  0.444  0.500-  33 1.45  27 1.45  34 1.45
  70  0.889  0.611  0.500-  34 1.45  35 1.45  28 1.45
  71  0.889  0.778  0.500-  35 1.45  36 1.45  29 1.45
  72  0.889  0.944  0.500-  36 1.45  31 1.45  30 1.45
  73  0.545  0.469  0.604-  76 1.34  78 1.34  77 1.35  74 1.53
  74  0.493  0.515  0.629-  80 1.37  79 1.37  73 1.53  75 1.56
  75  0.437  0.560  0.605-  81 1.24  82 1.24  74 1.56
  76  0.617  0.540  0.582-  73 1.34
  77  0.591  0.431  0.627-  73 1.35
  78  0.475  0.392  0.583-  73 1.34
  79  0.428  0.439  0.653-  74 1.37
  80  0.569  0.588  0.651-  74 1.37
  81  0.493  0.652  0.596-  75 1.24
  82  0.345  0.498  0.598-  75 1.24

  LATTYP: Found a hexagonal cell.
 ALAT       =    15.0731507304
 C/A-ratio  =     2.3296167479

  Lattice vectors:

 A1 = (   7.5365500567, -13.0537460594,   0.0000000000)
 A2 = (   7.5365500567,  13.0537460594,   0.0000000000)
 A3 = (   0.0000000000,   0.0000000000,  35.1146643856)

Analysis of symmetry for initial positions (statically):
 Subroutine PRICEL returns:
 Original cell was already a primitive cell.

 Routine SETGRP: Setting up the symmetry group for a
 hexagonal supercell.

 Subroutine GETGRP returns: Found  1 space group operations
 (whereof  1 operations were pure point group operations)
 out of a pool of 24 trial point group operations.

The static configuration has the point symmetry C_1 .

Analysis of symmetry for dynamics (positions and initial velocities):
 Subroutine PRICEL returns:
 Original cell was already a primitive cell.

[...]

The dynamic configuration has the point symmetry C_1 .

Analysis of constrained symmetry for selective dynamics:
 Subroutine PRICEL returns:
 Original cell was already a primitive cell.

[...]

The constrained configuration has the point symmetry C_1 .

Analysis of structural, dynamic, and magnetic symmetry:
 Subroutine PRICEL returns:
 Original cell was already a primitive cell.

 Routine SETGRP: Setting up the symmetry group for a
 hexagonal supercell.

 Subroutine GETGRP returns: Found  1 space group operations
 (whereof  1 operations were pure point group operations)
 out of a pool of 24 trial point group operations.

The magnetic configuration has the point symmetry C_1 .

 Subroutine INISYM returns: Found  1 space group operations
 (whereof  1 operations are pure point group operations),
 and found     1 'primitive' translations

 KPOINTS: K-Point Grid

Automatic generation of k-mesh.
Space group operators:
 irot       det(A)        alpha          n_x          n_y          n_z        tau_x        tau_y        tau_z
    1     1.000000     0.000000     1.000000     0.000000     0.000000     0.000000     0.000000     0.000000

 Subroutine IBZKPT returns following result:

 Found      5 irreducible k-points:

 Following reciprocal coordinates:
            Coordinates               Weight
  0.000000  0.000000  0.000000      1.000000
  0.333333  0.000000  0.000000      2.000000
  0.000000  0.333333  0.000000      2.000000
  0.333333  0.333333  0.000000      2.000000
 -0.333333  0.333333  0.000000      2.000000

 Following cartesian coordinates:
            Coordinates               Weight
  0.000000  0.000000  0.000000      1.000000
  0.022114 -0.012768  0.000000      2.000000
  0.022114  0.012768  0.000000      2.000000
  0.044229  0.000000  0.000000      2.000000
  0.000000  0.025535  0.000000      2.000000

 SYSTEM =  SiC
 POSCAR =  B N C F O

 Startparameter for this run:
   NWRITE =      2    write-flag & timer
   PREC   = accura    normal or accurate (medium, high low for compatibility)
   ISTART =      0    job   : 0-new  1-cont  2-samecut
   ICHARG =      2    charge: 1-file 2-atom 10-const
   ISPIN  =      2    spin polarized calculation?
   LNONCOLLINEAR =      F non collinear calculations
   LSORBIT =      F    spin-orbit coupling
   INIWAV =      1    electr: 0-lowe 1-rand  2-diag
   LASPH  =      T    aspherical Exc in radial PAW
   METAGGA=      F    non-selfconsistent MetaGGA calc.

 Electronic Relaxation 1
   ENCUT  =  550.0 eV  40.42 Ry    6.36 a.u.  28.82 28.82 67.15*2*pi/ulx,y,z
   ENINI  =  550.0     initial cutoff
   ENAUG  =  644.9 eV  augmentation charge cutoff
   NELM   =    100;   NELMIN=  2; NELMDL= -5     # of ELM steps
   EDIFF  = 0.1E-04   stopping-criterion for ELM
   LREAL  =      T    real-space projection
   NLSPLINE    = F    spline interpolate recip. space projectors
   LCOMPAT=      F    compatible to vasp.4.4
   GGA_COMPAT  = T    GGA compatible to vasp.4.4-vasp.4.6
   LMAXPAW     = -100 max onsite density
   LMAXMIX     =    2 max onsite mixed and CHGCAR
   VOSKOWN=      0    Vosko Wilk Nusair interpolation
   ROPT   =   -0.00025  -0.00025  -0.00025  -0.00025
   ROPT   =   -0.00025
 Ionic relaxation
   EDIFFG = -.5E-01   stopping-criterion for IOM
   NSW    =    500    number of steps for IOM
   NBLOCK =      1;   KBLOCK =    500    inner block; outer block
   IBRION =      2    ionic relax: 0-MD 1-quasi-New 2-CG
[...]
   -.272E+02 -.706E+01 0.514E+02   0.267E+02 0.713E+01 -.505E+02   0.246E-01 0.336E-02 0.135E-01   -.143E-02 -.397E-02 0.316E-02
   -.607E+00 -.277E+01 0.403E+02   0.613E+00 0.280E+01 -.397E+02   0.180E-02 0.403E-02 0.115E-02   -.135E-02 -.391E-02 -.246E-03
   0.795E+01 -.304E+01 0.412E+02   -.771E+01 0.293E+01 -.405E+02   -.562E-02 0.533E-03 -.693E-02   -.191E-03 -.176E-02 -.206E-02
   0.359E+01 0.264E+01 0.419E+02   -.336E+01 -.282E+01 -.412E+02   -.118E-01 0.437E-02 -.926E-04   0.128E-02 0.278E-02 0.973E-03
   -.101E+02 0.110E+02 0.452E+02   0.101E+02 -.111E+02 -.446E+02   -.422E-02 -.261E-02 0.100E-01   0.535E-03 0.340E-02 0.282E-02
   -.205E+02 0.101E+02 0.486E+02   0.204E+02 -.996E+01 -.479E+02   0.725E-04 -.105E-01 0.405E-02   -.630E-03 0.854E-03 -.571E-03
   -.150E+02 0.210E+01 0.436E+02   0.148E+02 -.198E+01 -.429E+02   0.637E-02 -.231E-02 0.331E-02   -.902E-03 -.168E-02 -.146E-03
   0.224E+02 -.317E+01 0.712E+02   -.219E+02 0.332E+01 -.700E+02   -.157E-01 -.168E-01 -.311E-01   -.251E-02 -.573E-03 0.277E-02
   0.329E+02 -.150E+02 0.797E+02   -.321E+02 0.149E+02 -.782E+02   -.292E-01 -.190E-01 -.166E-02   0.329E-02 -.523E-02 -.138E-02
   0.180E+02 -.177E+02 0.780E+02   -.173E+02 0.171E+02 -.765E+02   -.136E-01 0.424E-01 0.380E-01   0.696E-02 0.661E-02 -.456E-02
   -.508E+01 -.457E+01 0.692E+02   0.524E+01 0.405E+01 -.679E+02   0.151E-03 0.357E-01 -.464E-01   0.575E-02 0.543E-02 0.485E-02
   -.141E+02 0.538E+01 0.686E+02   0.140E+02 -.550E+01 -.676E+02   0.316E-02 0.930E-02 0.352E-01   -.224E-02 0.286E-02 -.843E-02
   -.121E+01 0.463E+01 0.676E+02   0.122E+01 -.450E+01 -.666E+02   0.468E-02 -.139E-02 0.237E-01   -.551E-02 0.982E-02 -.959E-02
   0.431E+02 0.112E+02 0.839E+02   -.427E+02 -.109E+02 -.826E+02   -.397E-01 -.398E-01 -.704E-01   0.237E-02 0.375E-02 0.971E-02
   0.670E+02 -.106E+02 0.115E+03   -.660E+02 0.111E+02 -.113E+03   -.972E-01 -.619E-01 -.189E+00   0.798E-02 -.894E-02 0.264E-01
   0.493E+02 -.457E+02 0.132E+03   -.484E+02 0.453E+02 -.130E+03   -.102E+00 0.473E-01 0.210E-01   0.142E-01 -.118E-01 0.516E-02
   0.124E+02 -.473E+02 0.935E+02   -.121E+02 0.461E+02 -.913E+02   -.926E-02 0.151E+00 -.119E+00   0.791E-02 -.528E-02 0.880E-02
   -.306E+00 -.184E+02 0.683E+02   0.306E+00 0.176E+02 -.670E+02   0.608E-02 0.712E-01 -.245E-01   -.284E-02 0.102E-02 0.330E-02
   0.124E+02 0.477E+01 0.681E+02   -.123E+02 -.489E+01 -.672E+02   -.126E-01 0.124E-01 0.652E-01   -.601E-02 0.390E-02 -.879E-02
   0.360E+02 0.287E+02 0.883E+02   -.358E+02 -.285E+02 -.872E+02   -.160E-01 -.141E-01 -.501E-01   -.117E-04 0.880E-02 0.223E-02
   0.723E+02 0.321E+02 0.165E+03   -.718E+02 -.313E+02 -.164E+03   -.101E+00 -.567E-01 0.431E-01   0.259E-02 0.157E-02 -.917E-03
   0.512E+02 -.267E+02 0.220E+03   -.509E+02 0.274E+02 -.217E+03   -.103E+00 -.670E-01 0.420E-02   0.607E-02 -.860E-02 0.517E-02
   0.171E+01 -.686E+02 0.180E+03   -.170E+01 0.683E+02 -.178E+03   -.309E-02 0.111E+00 0.123E+00   0.619E-03 -.191E-01 0.186E-02
   -.120E+02 -.483E+02 0.933E+02   0.116E+02 0.471E+02 -.911E+02   0.528E-02 0.158E+00 -.143E+00   -.837E-02 -.800E-02 0.997E-02
   0.452E+01 -.576E+01 0.691E+02   -.468E+01 0.525E+01 -.679E+02   0.428E-02 0.289E-01 -.253E-01   -.938E-02 0.396E-03 0.190E-02
   0.898E+01 0.227E+02 0.742E+02   -.911E+01 -.228E+02 -.731E+02   -.117E-01 0.250E-02 -.771E-01   -.356E-02 0.233E-02 0.102E-01
   0.266E+02 0.669E+02 0.132E+03   -.265E+02 -.663E+02 -.130E+03   -.378E-01 -.478E-01 -.546E-01   0.427E-03 0.643E-02 0.459E-02
   0.370E+01 0.484E+02 0.254E+03   -.372E+01 -.475E+02 -.253E+03   -.335E-02 -.897E-01 0.602E+00   -.232E-03 0.743E-03 -.294E-02
   -.466E+02 -.285E+02 0.227E+03   0.463E+02 0.292E+02 -.225E+03   0.956E-01 -.604E-01 0.831E-01   -.751E-02 -.940E-02 0.258E-02
   -.492E+02 -.478E+02 0.134E+03   0.483E+02 0.474E+02 -.131E+03   0.114E+00 0.463E-01 -.265E-01   -.117E-01 -.880E-02 0.693E-02
   -.183E+02 -.191E+02 0.775E+02   0.176E+02 0.185E+02 -.760E+02   0.180E-01 0.467E-01 0.267E-02   -.781E-02 -.242E-02 -.708E-02
[...]
   -.875E+01 0.242E+02 0.748E+02   0.888E+01 -.242E+02 -.737E+02   0.469E-02 0.355E-02 -.817E-01   0.387E-02 0.906E-02 0.146E-01
   -.369E+02 0.307E+02 0.915E+02   0.367E+02 -.305E+02 -.903E+02   0.224E-01 -.230E-01 -.571E-01   0.239E-02 0.537E-02 0.316E-02
   -.458E+02 0.117E+02 0.876E+02   0.454E+02 -.114E+02 -.863E+02   0.428E-01 -.408E-01 -.872E-01   0.122E-03 0.284E-02 0.193E-02
   -.246E+02 -.362E+01 0.720E+02   0.242E+02 0.377E+01 -.708E+02   0.252E-01 -.211E-01 -.476E-01   -.697E-04 -.153E-02 0.630E-02
   -.222E+01 0.593E+02 -.385E+03   0.191E+01 -.488E+02 0.391E+03   0.232E+00 -.900E+01 -.633E+01   0.214E-03 0.128E-02 -.618E-02
   0.317E+01 -.805E+02 -.414E+03   -.386E+01 0.878E+02 0.402E+03   0.596E+00 -.590E+01 0.114E+02   -.133E-02 -.107E-02 -.554E-02
   0.700E+01 -.136E+03 -.391E+03   -.707E+01 0.137E+03 0.391E+03   -.442E-01 0.485E+00 -.738E+00   0.941E-03 -.467E-02 -.993E-02
   -.451E+03 0.146E+03 -.347E+03   0.498E+03 -.143E+03 0.314E+03   -.459E+02 0.468E+00 0.345E+02   0.160E-02 0.732E-03 -.178E-01
   -.301E+02 0.581E+03 -.958E+03   0.326E+02 -.625E+03 0.991E+03   -.258E+01 0.461E+02 -.322E+02   0.861E-02 0.551E-03 -.197E-01
   0.453E+03 0.183E+03 -.364E+03   -.501E+03 -.184E+03 0.333E+03   0.469E+02 0.436E+01 0.326E+02   0.372E-02 0.111E-01 -.238E-01
   0.427E+03 -.224E+02 -.111E+04   -.469E+03 0.210E+02 0.114E+04   0.410E+02 0.355E+01 -.321E+02   0.307E-02 -.363E-02 -.699E-02
   -.445E+03 -.643E+02 -.109E+04   0.489E+03 0.670E+02 0.112E+04   -.428E+02 -.448E+00 -.299E+02   0.247E-02 0.514E-02 -.156E-01
   -.335E+03 -.336E+03 -.470E+03   0.381E+03 0.358E+03 0.457E+03   -.447E+02 -.191E+02 0.136E+02   -.175E-01 -.176E-01 -.262E-01
   0.371E+03 -.310E+03 -.498E+03   -.420E+03 0.328E+03 0.489E+03   0.469E+02 -.159E+02 0.963E+01   -.291E-01 -.180E-02 -.236E-01
   0.347E+00 -.457E+01 -.327E+00   0.000E+00 0.568E-13 -.176E-11   -.251E+00 0.461E+01 0.330E+00   -.276E-01 -.162E-01 -.679E-02

 POSITION                                       TOTAL-FORCE (eV/Angst)
      1.25569     -0.72491     17.56371         0.010573      0.001340     -0.000801
      2.51233      1.45038     17.56482         0.008563      0.008070     -0.010631
      3.76944      3.62505     17.55741        -0.012646      0.007711      0.001636
      5.02502      5.80092     17.56437        -0.015027      0.000436     -0.001723
      6.28052      7.97739     17.56233        -0.007840     -0.007348     -0.000153
      7.53643     10.15327     17.55760        -0.000869     -0.003413      0.013174
      2.51156     -2.90036     17.56028         0.009901     -0.006489     -0.001424
      3.76891     -0.72504     17.55829        -0.006535      0.005160     -0.014968
      5.02662      1.44998     17.55308        -0.019702      0.010211     -0.012682
      6.28151      3.62351     17.55254        -0.016700      0.010784     -0.003922
      7.53610      5.80038     17.56652        -0.001101      0.004641     -0.006505
      8.79162      7.97732     17.56256         0.015725     -0.006126      0.000686
      3.76752     -5.07644     17.56402        -0.001124     -0.001430     -0.004606
      5.02407     -2.90042     17.54896        -0.000065      0.003686      0.001478
      6.28119     -0.72466     17.52126        -0.001034     -0.003299     -0.000487
      7.53641      1.45119     17.53568         0.001954     -0.009654     -0.001034
      8.79033      3.62331     17.55420         0.021364      0.010980     -0.006524
     10.04722      5.80086     17.56555         0.009877      0.003799      0.000426
      5.02333     -7.25219     17.56290        -0.000895      0.001600      0.003473
      6.28028     -5.07593     17.56223        -0.009931     -0.004294     -0.015116
      7.53633     -2.89905     17.52923        -0.000512     -0.009488     -0.005812
      8.79169     -0.72460     17.51225         0.003297      0.000795      0.004925
     10.04577      1.45001     17.54790         0.015605      0.007389     -0.008802
     11.30270      3.62507     17.55904         0.008029      0.005322      0.000250
      6.27983     -9.42731     17.55858        -0.008805     -0.010467      0.007620
      7.53590     -7.25178     17.56163         0.004323     -0.002084     -0.005176
      8.79230     -5.07600     17.56117         0.003149     -0.000761     -0.017797
     10.04854     -2.90013     17.54107         0.001150      0.002055      0.002358
     11.30389     -0.72512     17.54765        -0.002381      0.007154      0.002473
     12.55991      1.45042     17.56328        -0.007625      0.003256     -0.010450
      7.53616    -11.60287     17.56193         0.001964      0.000647      0.000988
      8.79224     -9.42710     17.55751         0.012821     -0.013749      0.010384
     10.04873     -7.25205     17.56211         0.004096     -0.005020     -0.002290
     11.30488     -5.07631     17.56268         0.000071     -0.001318     -0.008388
     12.56120     -2.90026     17.55590        -0.011705     -0.007461      0.004495
     13.81692     -0.72476     17.56128        -0.007202     -0.001148      0.000750
      1.25558      0.72548     17.56459         0.003524     -0.001149      0.000032
      2.51155      2.90121     17.55979         0.008386     -0.009873      0.002285
      3.76803      5.07638     17.56017         0.006097      0.000754      0.007578
      5.02442      7.25208     17.56476        -0.002100     -0.000179      0.000038
      6.28073      9.42798     17.55737        -0.010981     -0.001921      0.004141
      7.53638     11.60345     17.56011        -0.002812      0.006797      0.004025
      2.51173     -1.45009     17.56315         0.003371     -0.004181     -0.001721
      3.76835      0.72538     17.56437         0.001960     -0.008489     -0.012016
      5.02407      2.90043     17.54975        -0.001845     -0.004472      0.000643
      6.28017      5.07556     17.56444         0.002597      0.008746     -0.005856
      7.53606      7.25185     17.56455         0.001865     -0.001287     -0.000252
      8.79214      9.42793     17.55815         0.000704     -0.002105      0.008930
      3.76757     -3.62605     17.55950         0.003140      0.003146      0.001158
      5.02418     -1.45081     17.53965         0.000436      0.011814      0.005294
      6.28076      0.72442     17.52984        -0.003579     -0.004698     -0.000527
      7.53575      2.90076     17.53292         0.005287     -0.009019     -0.000389
      8.79189      5.07552     17.56613        -0.000046      0.006539     -0.008003
     10.04786      7.25214     17.56494         0.001124     -0.006883      0.001043
      5.02396     -5.80154     17.56567        -0.003484      0.003190     -0.003828
      6.28028     -3.62586     17.54875        -0.002115      0.001365      0.003849
      7.53641     -1.45102     17.49509        -0.002290      0.009546      0.011793
      8.79184      0.72441     17.52121         0.002009     -0.000762     -0.003716
     10.04801      2.90047     17.55019         0.001696     -0.004368     -0.003628
     11.30408      5.07639     17.56235        -0.005032     -0.000363      0.002931
[...]
      8.79209     -7.97676     17.55810         0.001991     -0.002071      0.009720
     10.04844     -5.80157     17.56490         0.004533      0.007149     -0.002771
     11.30499     -3.62584     17.55500         0.000530     -0.002262     -0.001793
     12.56106     -1.45001     17.55730        -0.003752     -0.007066     -0.009329
     13.81683      0.72560     17.56369        -0.004541     -0.003296     -0.002524
      7.63780     -0.99262     21.22689        -0.003877      0.009747      0.013895
      7.60013      0.28401     22.07181        -0.000456      0.003182      0.002732
      7.51690      1.60827     21.24211         0.021260     -0.011266      0.011513
      8.71434     -1.00362     20.42116        -0.008701     -0.005350      0.008679
      7.69956     -2.09385     22.00498         0.000843      0.003118      0.002205
      6.53289     -1.09347     20.46636         0.004703     -0.003551      0.007307
      6.52962      0.14497     22.91852        -0.000885      0.001340      0.002611
      8.72153      0.25010     22.86189        -0.005423     -0.003878      0.006993
      8.62360      2.07650     20.91866        -0.000880      0.009969      0.014253
      6.35745      1.99901     21.01541        -0.008986      0.012387      0.005799
    total drift:                                0.068566      0.024109     -0.003162

  FREE ENERGIE OF THE ION-ELECTRON SYSTEM (eV)
  free  energy   TOTEN  =      -777.71519759 eV

  energy  without entropy=     -777.71519759  energy(sigma->0) =     -777.71519759

 d Force = 0.2150408E-03[ 0.754E-04, 0.355E-03]  d Energy = 0.2027986E-03 0.122E-04
 d Force = 0.2337365E+01[ 0.234E+01, 0.234E+01]  d Ewald  = 0.2337365E+01 0.561E-06

 Conjugate gradient step on ions:
 trial-energy change:   -0.000203  1 .order   -0.000215   -0.000355   -0.000075
  (g-gl).g = 0.942E-03      g.g   = 0.871E-03  gl.gl    = 0.161E-02
 g(Force)  = 0.871E-03   g(Stress)= 0.000E+00 ortho     =-0.419E-04
 gamma     =   0.58399
 trial     =   0.41907
 opt step  =   0.53227  (harmonic =   0.53227) maximal distance =0.00088752
 next E    =  -777.715220   (d E  =  -0.00023)

 reached required accuracy - stopping structural energy minimisation
 writing wavefunctions

 total charge

[...]

 magnetization (x)

# of ion       s       p       d       tot
    1       -0.000  -0.000   0.000  -0.000
    2        0.000   0.000   0.000   0.000
    3        0.000   0.000   0.000   0.000
    4        0.000   0.000   0.000   0.000
    5       -0.000  -0.000   0.000  -0.000
    6        0.000  -0.000   0.000  -0.000
    7        0.000   0.000   0.000   0.000
    8       -0.000   0.000   0.000   0.000
    9        0.000   0.000   0.000   0.000
   10        0.000   0.000   0.000   0.000
   11       -0.000  -0.000   0.000  -0.000
   12       -0.000  -0.000   0.000  -0.000
   13        0.000   0.000   0.000   0.000
   14       -0.000   0.000   0.000   0.000
   15        0.000  -0.000   0.000  -0.000
   16       -0.000  -0.000   0.000  -0.000
   17       -0.000  -0.000   0.000  -0.000
   18        0.000   0.000   0.000   0.000
   19        0.000   0.000   0.000   0.000
   20        0.000   0.000   0.000   0.000
   21        0.000   0.000   0.000   0.000
   22        0.000   0.000   0.000   0.000
   23        0.000   0.000   0.000   0.000
   24        0.000   0.000   0.000   0.000
   25        0.000   0.000   0.000   0.000
   26       -0.000  -0.000   0.000  -0.000
   27       -0.000  -0.000   0.000  -0.000
   28       -0.000   0.000   0.000   0.000
   29       -0.000   0.000   0.000   0.000
   30        0.000  -0.000   0.000  -0.000
   31       -0.000  -0.000   0.000  -0.000
   32        0.000  -0.000   0.000   0.000
   33        0.000   0.000   0.000   0.000
   34        0.000   0.000   0.000   0.000
   35       -0.000  -0.000   0.000  -0.000
   36       -0.000   0.000   0.000   0.000
   37       -0.000   0.000   0.000   0.000
   38       -0.000  -0.000   0.000  -0.000
   39       -0.000  -0.000   0.000  -0.000
   40       -0.000  -0.000   0.000  -0.000
   41        0.000   0.000   0.000   0.000
   42        0.000   0.000   0.000   0.000
   43        0.000   0.000   0.000   0.000
   44       -0.000  -0.000   0.000  -0.000
   45       -0.000  -0.000   0.000  -0.000
   46        0.000   0.000   0.000   0.000
   47       -0.000  -0.000   0.000  -0.000
   48        0.000   0.000   0.000   0.000
   49       -0.000  -0.000   0.000  -0.000
   50       -0.000  -0.000   0.000  -0.000
   51        0.000   0.000   0.000   0.000
   52        0.000   0.000   0.000   0.000
   53        0.000   0.000   0.000   0.000
   54       -0.000  -0.000   0.000  -0.000
   55       -0.000  -0.000   0.000  -0.000
   56       -0.000   0.000   0.000   0.000
   57        0.000   0.000   0.000   0.000
   58        0.000   0.000   0.000   0.000
   59       -0.000  -0.000   0.000  -0.000
   60       -0.000  -0.000   0.000  -0.000
[...]
   68       -0.000   0.000   0.000   0.000
   69       -0.000  -0.000   0.000  -0.000
   70        0.000   0.000   0.000   0.000
   71        0.000  -0.000   0.000  -0.000
   72        0.000   0.000   0.000   0.000
   73       -0.000   0.000   0.000  -0.000
   74       -0.000  -0.000   0.000  -0.000
   75       -0.000  -0.000   0.000  -0.000
   76        0.000   0.000   0.000   0.000
   77        0.000  -0.000   0.000  -0.000
   78       -0.000   0.000   0.000   0.000
   79       -0.000   0.000   0.000   0.000
   80       -0.000   0.000   0.000   0.000
   81        0.000  -0.000   0.000  -0.000
   82       -0.000  -0.000   0.000  -0.000
tot          0.000  -0.000   0.000  -0.000