 vasp.5.4.4.18Apr17-6-g9f103f2a35 (build Jun 11 2020 13:42:08) complex

 executed on             LinuxIFC date 2021.02.03  08:09:35

 INCAR:
 POTCAR:    PAW_PBE B 06Sep2000
 POTCAR:    PAW_PBE N 08Apr2002
 POTCAR:    PAW_PBE C 08Apr2002
 POTCAR:    PAW_PBE F 08Apr2002
 POTCAR:    PAW_PBE O 08Apr2002

 POTCAR:    PAW_PBE B 06Sep2000
   VRHFIN =B: s2p1

   TITEL  = PAW_PBE B 06Sep2000
   POMASS =   10.811; ZVAL   =    3.000    mass and valenz
   ENMAX  =  318.614; ENMIN  =  238.960 eV

 POTCAR:    PAW_PBE N 08Apr2002
   VRHFIN =N: s2p3

   TITEL  = PAW_PBE N 08Apr2002
   POMASS =   14.001; ZVAL   =    5.000    mass and valenz
   ENMAX  =  400.000; ENMIN  =  300.000 eV

 POTCAR:    PAW_PBE C 08Apr2002
   VRHFIN =C: s2p2

[...]

 POTCAR:    PAW_PBE F 08Apr2002
   VRHFIN =F: s2p5

[...]

 POTCAR:    PAW_PBE O 08Apr2002
   VRHFIN =O: s2p4

   TITEL  = PAW_PBE O 08Apr2002
   POMASS =   16.000; ZVAL   =    6.000    mass and valenz
   ENMAX  =  400.000; ENMIN  =  300.000 eV

 Optimization of the real space projectors (new method)

 maximal supplied QI-value         = 22.11
 optimisation between [QCUT,QGAM] = [ 11.94, 23.88] = [ 39.92,159.67] Ry
 Optimized for a Real-space Cutoff    1.11 Angstroem

   l    n(q)    QCUT    max X(q) W(low)/X(q) W(high)/X(q)  e(spline)
   0      8    11.939    53.033    0.41E-03    0.69E-03    0.53E-07
   0      8    11.939    34.740    0.40E-03    0.68E-03    0.52E-07
   1      7    11.939    30.949    0.26E-03    0.22E-03    0.14E-06
   1      7    11.939    19.518    0.24E-03    0.20E-03    0.13E-06
 Optimization of the real space projectors (new method)

[...]

   l    n(q)    QCUT    max X(q) W(low)/X(q) W(high)/X(q)  e(spline)
   0      7    11.883    14.049    0.20E-03    0.16E-03    0.14E-06
   0      7    11.883     8.945    0.29E-03    0.20E-03    0.19E-06
   1      7    11.883     7.086    0.38E-03    0.88E-04    0.22E-06
   1      7    11.883     6.747    0.34E-03    0.55E-04    0.20E-06
 Optimization of the real space projectors (new method)

 maximal supplied QI-value         = 24.76
 optimisation between [QCUT,QGAM] = [ 11.88, 24.01] = [ 39.54,161.47] Ry
 Optimized for a Real-space Cutoff    1.05 Angstroem

   l    n(q)    QCUT    max X(q) W(low)/X(q) W(high)/X(q)  e(spline)
   0      7    11.883    20.381    0.32E-03    0.21E-03    0.20E-06
   0      7    11.883    15.268    0.35E-03    0.22E-03    0.22E-06
   1      7    11.883     5.964    0.44E-03    0.69E-04    0.24E-06
   1      7    11.883     5.382    0.38E-03    0.34E-04    0.20E-06
  PAW_PBE B 06Sep2000                   :
  PAW_PBE N 08Apr2002                   :
  PAW_PBE C 08Apr2002                   :
  PAW_PBE F 08Apr2002                   :
  PAW_PBE O 08Apr2002                   :

 POSCAR: B N C F O
  positions in direct lattice
  velocities in cartesian coordinates

 METAGGA = SCAN     LMAXTAU =  6    LMIXTAU =  F

 VTST: version 3.1, (03/28/14)

 CHAIN: initializing optimizer

 OPT: Using Conjugate-Gradient optimizer
 OPT: CG, Init
 OPT: CG, FDSTEP      0.005000
 OPT: CG, MAXMOVE      0.200000

 CHAIN: Read ICHAIN            2

 POSCAR: B N C F O
  positions in direct lattice
  velocities in cartesian coordinates
 CHAIN: Running the Dimer method

 Dimer: -----------------
 Dimer: Input Parameters
 Dimer:   Seed      0
 Dimer: RotMax      4
 Dimer:     dR      0.005000
 Dimer:  FNMax      1.000000
 Dimer:  FNMin      0.010000
 Dimer: -----------------

 ion  position               nearest neighbor table
   1  0.111  0.056  0.500-  42 1.45  37 1.45  43 1.45
   2  0.111  0.222  0.500-  37 1.45  38 1.45  44 1.45
   3  0.111  0.389  0.500-  39 1.45  38 1.45  45 1.45
   4  0.111  0.556  0.500-  46 1.45  39 1.45  40 1.45
   5  0.111  0.722  0.500-  40 1.45  47 1.45  41 1.45
   6  0.111  0.889  0.500-  41 1.45  48 1.45  42 1.45
   7  0.278  0.056  0.500-  48 1.45  49 1.45  43 1.45
   8  0.278  0.222  0.500-  43 1.45  50 1.45  44 1.45
   9  0.278  0.389  0.500-  45 1.45  44 1.45  51 1.45
  10  0.278  0.556  0.500-  46 1.45  52 1.45  45 1.45
  11  0.278  0.722  0.500-  53 1.45  47 1.45  46 1.45
  12  0.278  0.889  0.500-  47 1.45  54 1.45  48 1.45
  13  0.444  0.056  0.500-  54 1.45  55 1.45  49 1.45
  14  0.444  0.222  0.500-  49 1.45  56 1.45  50 1.45
  15  0.444  0.389  0.500-  57 1.45  50 1.45  51 1.45
  16  0.444  0.556  0.500-  58 1.45  52 1.45  51 1.45
  17  0.444  0.722  0.500-  59 1.45  53 1.45  52 1.45
  18  0.444  0.889  0.500-  60 1.45  54 1.45  53 1.45
  19  0.611  0.056  0.500-  61 1.45  60 1.45  55 1.45
  20  0.611  0.222  0.500-  55 1.45  62 1.45  56 1.45
  21  0.611  0.389  0.500-  63 1.45  56 1.45  57 1.45
  22  0.611  0.556  0.500-  64 1.45  58 1.45  57 1.45
  23  0.611  0.722  0.500-  59 1.45  65 1.45  58 1.45
  24  0.611  0.889  0.500-  66 1.45  60 1.45  59 1.45
  25  0.778  0.056  0.500-  61 1.45  67 1.45  66 1.45
  26  0.778  0.222  0.500-  61 1.45  68 1.45  62 1.45
  27  0.778  0.389  0.500-  69 1.45  62 1.45  63 1.45
  28  0.778  0.556  0.500-  70 1.45  64 1.45  63 1.45
  29  0.778  0.722  0.500-  65 1.45  71 1.45  64 1.45
  30  0.778  0.889  0.500-  72 1.45  66 1.45  65 1.45
  31  0.944  0.056  0.500-  72 1.45  67 1.45  37 1.45
  32  0.944  0.222  0.500-  67 1.45  68 1.45  38 1.45
  33  0.944  0.389  0.500-  68 1.45  69 1.45  39 1.45
  34  0.944  0.556  0.500-  69 1.45  40 1.45  70 1.45
  35  0.944  0.722  0.500-  70 1.45  41 1.45  71 1.45
  36  0.944  0.889  0.500-  71 1.45  42 1.45  72 1.45
  37  0.056  0.111  0.500-   2 1.45   1 1.45  31 1.45
  38  0.056  0.278  0.500-   3 1.45   2 1.45  32 1.45
  39  0.056  0.444  0.500-   3 1.45   4 1.45  33 1.45
  40  0.056  0.611  0.500-   5 1.45  34 1.45   4 1.45
  41  0.056  0.778  0.500-   6 1.45  35 1.45   5 1.45
  42  0.056  0.944  0.500-   1 1.45  36 1.45   6 1.45
  43  0.222  0.111  0.500-   8 1.45   7 1.45   1 1.45
  44  0.222  0.278  0.500-   9 1.45   8 1.45   2 1.45
  45  0.222  0.444  0.500-   9 1.45  10 1.45   3 1.45
  46  0.222  0.611  0.500-  10 1.45   4 1.45  11 1.45
  47  0.222  0.778  0.500-  12 1.45  11 1.45   5 1.45
  48  0.222  0.944  0.500-   7 1.45  12 1.45   6 1.45
  49  0.389  0.111  0.500-  14 1.45   7 1.45  13 1.45
  50  0.389  0.278  0.500-  15 1.45   8 1.45  14 1.45
  51  0.389  0.444  0.500-   9 1.45  15 1.45  16 1.45
  52  0.389  0.611  0.500-  16 1.45  10 1.45  17 1.45
  53  0.389  0.778  0.500-  17 1.45  11 1.45  18 1.45
  54  0.389  0.944  0.500-  13 1.45  12 1.45  18 1.45
  55  0.556  0.111  0.500-  20 1.45  13 1.45  19 1.45
  56  0.556  0.278  0.500-  14 1.45  21 1.45  20 1.45
  57  0.556  0.444  0.500-  15 1.45  21 1.45  22 1.45
  58  0.556  0.611  0.500-  16 1.45  22 1.45  23 1.45
  59  0.556  0.778  0.500-  23 1.45  17 1.45  24 1.45
  60  0.556  0.944  0.500-  18 1.45  19 1.45  24 1.45
[...]
  68  0.889  0.278  0.500-  32 1.45  33 1.45  26 1.45
  69  0.889  0.444  0.500-  27 1.45  34 1.45  33 1.45
  70  0.889  0.611  0.500-  35 1.45  28 1.45  34 1.45
  71  0.889  0.778  0.500-  36 1.45  29 1.45  35 1.45
  72  0.889  0.944  0.500-  31 1.45  30 1.45  36 1.45
  73  0.374  0.314  0.673-  76 1.33  78 1.34  77 1.34  74 1.54
  74  0.355  0.311  0.630-  80 1.33  79 1.33  73 1.54  75 1.85
  75  0.343  0.424  0.617-  82 1.20  81 1.21  74 1.85
  76  0.462  0.396  0.682-  73 1.33
  77  0.378  0.230  0.683-  73 1.34
  78  0.297  0.314  0.692-  73 1.34
  79  0.434  0.318  0.610-  74 1.33
  80  0.269  0.227  0.620-  74 1.33
  81  0.429  0.494  0.613-  75 1.21
  82  0.252  0.394  0.616-  75 1.20

IMPORTANT INFORMATION: All symmetrisations will be switched off!
NOSYMM: (Re-)initialisation of all symmetry stuff for point group C_1.

 KPOINTS: K-Point Grid

Automatic generation of k-mesh.
Space group operators:
 irot       det(A)        alpha          n_x          n_y          n_z        tau_x        tau_y        tau_z
    1     1.000000     0.000000     1.000000     0.000000     0.000000     0.000000     0.000000     0.000000

 Subroutine IBZKPT returns following result:

 Found      5 irreducible k-points:

 Following reciprocal coordinates:
            Coordinates               Weight
  0.000000  0.000000  0.000000      1.000000
  0.333333  0.000000  0.000000      2.000000
  0.000000  0.333333  0.000000      2.000000
  0.333333  0.333333  0.000000      2.000000
 -0.333333  0.333333  0.000000      2.000000

 Following cartesian coordinates:
            Coordinates               Weight
  0.000000  0.000000  0.000000      1.000000
  0.022114 -0.012768  0.000000      2.000000
  0.022114  0.012768  0.000000      2.000000
  0.044229  0.000000  0.000000      2.000000
  0.000000  0.025535  0.000000      2.000000

 SYSTEM =  hBN
 POSCAR =  B N C F O

 Startparameter for this run:
   NWRITE =      2    write-flag & timer
   PREC   = normal    normal or accurate (medium, high low for compatibility)
   ISTART =      0    job   : 0-new  1-cont  2-samecut
   ICHARG =      2    charge: 1-file 2-atom 10-const
   ISPIN  =      2    spin polarized calculation?
   LNONCOLLINEAR =      F non collinear calculations
   LSORBIT =      F    spin-orbit coupling
   INIWAV =      1    electr: 0-lowe 1-rand  2-diag
   LASPH  =      T    aspherical Exc in radial PAW
   METAGGA=      F    non-selfconsistent MetaGGA calc.

 Electronic Relaxation 1
   ENCUT  =  550.0 eV  40.42 Ry    6.36 a.u.  28.82 28.82 67.15*2*pi/ulx,y,z
   ENINI  =  550.0     initial cutoff
   ENAUG  =  644.9 eV  augmentation charge cutoff
   NELM   =    100;   NELMIN=  2; NELMDL=  0     # of ELM steps
   EDIFF  = 0.1E-04   stopping-criterion for ELM
   LREAL  =      T    real-space projection
   NLSPLINE    = F    spline interpolate recip. space projectors
   LCOMPAT=      F    compatible to vasp.4.4
   GGA_COMPAT  = T    GGA compatible to vasp.4.4-vasp.4.6
   LMAXPAW     = -100 max onsite density
   LMAXMIX     =    2 max onsite mixed and CHGCAR
   VOSKOWN=      0    Vosko Wilk Nusair interpolation
   ROPT   =   -0.00050  -0.00050  -0.00050  -0.00050
   ROPT   =   -0.00050
 Ionic relaxation
   EDIFFG = -.5E-01   stopping-criterion for IOM
   NSW    =    500    number of steps for IOM
   NBLOCK =      1;   KBLOCK =    500    inner block; outer block
   IBRION =      3    ionic relax: 0-MD 1-quasi-New 2-CG
   NFREE  =      0    steps in history (QN), initial steepest desc. (CG)
   ISIF   =      2    stress and relaxation
   IWAVPR =     11    prediction:  0-non 1-charg 2-wave 3-comb
   ISYM   =      0    0-nonsym 1-usesym 2-fastsym
   LCORR  =      T    Harris-Foulkes like correction to forces

   POTIM  = 0.0000    time-step for ionic-motion
   TEIN   =    0.0    initial temperature
   TEBEG  =    0.0;   TEEND  =   0.0 temperature during run
   SMASS  =  -3.00    Nose mass-parameter (am)
   estimated Nose-frequenzy (Omega)   =  0.10E-29 period in steps =  0.00 mass=  -0.519E-26a.u.
   SCALEE = 1.0000    scale energy and forces
   NPACO  =    256;   APACO  = 16.0  distance and # of slots for P.C.
   PSTRESS=    0.0 pullay stress

  Mass of Ions in am
   POMASS =  10.81 14.00 12.01 19.00 16.00
  Ionic Valenz
   ZVAL   =   3.00  5.00  4.00  7.00  6.00
  Atomic Wigner-Seitz radii
  virtual crystal weights
   VCA    =   1.00  1.00  1.00  1.00  1.00
   NELECT =     346.4000    total number of electrons
   NUPDOWN=      -1.0000    fix difference up-down

[...]
   -.231E+01 -.254E+01 0.434E+02   0.226E+01 0.254E+01 -.433E+02   -.668E-03 -.134E-02 0.853E-03   -.363E-03 -.238E-03 0.295E-02
   0.153E+02 -.512E+01 0.500E+02   -.152E+02 0.514E+01 -.498E+02   0.300E-02 -.362E-03 0.119E-02   0.166E-02 -.434E-03 0.352E-02
   0.127E+02 -.104E+02 0.505E+02   -.126E+02 0.103E+02 -.503E+02   0.297E-02 -.160E-02 -.475E-03   0.151E-02 -.111E-02 0.364E-02
   0.320E+01 -.767E+01 0.460E+02   -.315E+01 0.760E+01 -.458E+02   0.106E-02 -.532E-03 -.504E-03   0.525E-03 -.101E-02 0.324E-02
   -.320E+01 -.725E+00 0.424E+02   0.320E+01 0.696E+00 -.422E+02   -.233E-02 -.260E-02 0.659E-03   -.252E-03 -.228E-03 0.284E-02
   -.132E+01 0.283E+01 0.422E+02   0.129E+01 -.282E+01 -.421E+02   0.291E-03 -.124E-02 0.897E-03   -.170E-03 0.274E-03 0.280E-02
   0.770E+01 0.115E+01 0.454E+02   -.772E+01 -.112E+01 -.452E+02   0.667E-03 -.140E-02 0.121E-02   0.774E-03 0.174E-03 0.308E-02
   0.399E+02 -.886E+01 0.105E+03   -.398E+02 0.896E+01 -.104E+03   0.109E-01 -.368E-03 0.198E-02   0.418E-02 -.576E-03 0.774E-02
   0.295E+02 -.291E+02 0.106E+03   -.293E+02 0.291E+02 -.106E+03   0.550E-02 -.546E-02 0.112E-01   0.335E-02 -.283E-02 0.820E-02
   0.833E+01 -.279E+02 0.871E+02   -.827E+01 0.278E+02 -.867E+02   0.248E-03 -.209E-02 0.109E-01   0.119E-02 -.332E-02 0.659E-02
   0.518E-01 -.102E+02 0.714E+02   -.700E-01 0.101E+02 -.711E+02   -.260E-03 0.596E-03 -.666E-03   0.611E-04 -.153E-02 0.491E-02
   0.807E+01 0.430E+01 0.707E+02   -.811E+01 -.431E+01 -.706E+02   0.469E-02 0.253E-02 -.776E-02   0.796E-03 0.323E-03 0.477E-02
   0.269E+02 0.677E+01 0.848E+02   -.269E+02 -.672E+01 -.846E+02   0.762E-02 0.648E-02 -.870E-02   0.274E-02 0.799E-03 0.596E-02
   0.414E+02 0.182E+02 0.130E+03   -.414E+02 -.181E+02 -.129E+03   0.229E-01 0.112E-01 0.105E-01   0.386E-02 0.206E-02 0.933E-02
   0.336E+02 -.168E+02 0.160E+03   -.335E+02 0.170E+02 -.160E+03   0.237E-01 -.716E-02 0.114E-01   0.337E-02 -.924E-03 0.123E-01
   0.599E+01 -.450E+02 0.135E+03   -.598E+01 0.450E+02 -.134E+03   0.551E-02 -.203E-01 0.103E-01   0.832E-03 -.418E-02 0.109E-01
   -.470E+01 -.310E+02 0.894E+02   0.465E+01 0.308E+02 -.891E+02   -.785E-04 -.555E-02 0.135E-01   -.560E-03 -.375E-02 0.695E-02
   0.436E+01 -.329E+01 0.731E+02   -.441E+01 0.319E+01 -.729E+02   0.211E-02 0.112E-02 -.292E-02   0.263E-03 -.757E-03 0.502E-02
   0.232E+02 0.181E+02 0.870E+02   -.232E+02 -.181E+02 -.868E+02   0.773E-02 0.478E-02 -.860E-02   0.223E-02 0.178E-02 0.609E-02
   0.174E+02 0.390E+02 0.113E+03   -.174E+02 -.390E+02 -.113E+03   0.601E-02 0.955E-02 -.843E-02   0.155E-02 0.374E-02 0.806E-02
   0.650E+01 0.286E+02 0.170E+03   -.638E+01 -.285E+02 -.170E+03   0.349E-02 0.160E-01 -.681E-02   0.666E-03 0.325E-02 0.123E-01
   -.212E+02 -.166E+02 0.172E+03   0.214E+02 0.168E+02 -.171E+03   -.218E-01 -.499E-02 -.284E-01   -.188E-02 -.795E-03 0.136E-01
   -.269E+02 -.352E+02 0.118E+03   0.268E+02 0.351E+02 -.117E+03   -.435E-02 -.127E-01 0.110E-01   -.288E-02 -.342E-02 0.960E-02
   -.106E+02 -.142E+02 0.796E+02   0.105E+02 0.140E+02 -.794E+02   -.207E-03 -.649E-03 0.821E-02   -.149E-02 -.199E-02 0.581E-02
   0.654E+01 0.149E+02 0.786E+02   -.658E+01 -.149E+02 -.785E+02   0.383E-02 0.294E-02 -.589E-02   0.485E-03 0.127E-02 0.539E-02
   0.493E+00 0.267E+02 0.833E+02   -.478E+00 -.267E+02 -.831E+02   0.138E-02 0.209E-02 -.332E-02   0.243E-04 0.253E-02 0.576E-02
   -.129E+02 0.423E+02 0.117E+03   0.130E+02 -.422E+02 -.117E+03   -.633E-02 0.846E-02 -.893E-02   -.108E-02 0.406E-02 0.830E-02
   -.393E+02 0.231E+02 0.141E+03   0.394E+02 -.229E+02 -.140E+03   -.238E-01 0.129E-01 0.133E-01   -.343E-02 0.272E-02 0.104E-01
   -.443E+02 -.854E+01 0.119E+03   0.442E+02 0.858E+01 -.119E+03   -.127E-01 0.422E-02 0.198E-01   -.449E-02 -.416E-03 0.928E-02
   -.242E+02 -.139E+02 0.844E+02   0.241E+02 0.138E+02 -.840E+02   -.406E-02 0.171E-02 0.116E-01   -.299E-02 -.155E-02 0.631E-02
   -.531E+01 0.281E+01 0.715E+02   0.526E+01 -.290E+01 -.713E+02   -.112E-02 0.557E-03 -.250E-02   -.816E-03 0.165E-04 0.484E-02
[...]
   -.476E+01 0.226E+00 0.731E+02   0.480E+01 -.281E+00 -.729E+02   -.162E-02 -.296E-03 -.607E-02   -.294E-03 -.265E-03 0.496E-02
   -.112E+02 0.614E+01 0.722E+02   0.112E+02 -.613E+01 -.720E+02   0.111E-02 0.235E-02 -.529E-02   -.115E-02 0.616E-03 0.485E-02
   -.318E+01 0.388E+01 0.726E+02   0.310E+01 -.384E+01 -.724E+02   0.162E-02 0.295E-02 -.651E-02   -.456E-03 0.502E-03 0.489E-02
   0.123E+02 -.325E+01 0.751E+02   -.123E+02 0.327E+01 -.749E+02   0.343E-02 0.216E-02 -.951E-02   0.128E-02 -.256E-03 0.515E-02
   0.316E+01 0.252E+02 -.414E+03   -.389E+01 -.239E+02 0.406E+03   0.886E+00 -.965E+00 0.823E+01   -.195E-03 0.634E-02 -.178E-01
   -.110E+02 -.425E+02 -.323E+03   0.167E+02 0.515E+02 0.330E+03   -.537E+01 -.832E+01 -.674E+01   0.788E-02 0.169E-01 -.821E-03
   -.434E+02 -.114E+03 -.310E+03   0.431E+02 0.113E+03 0.311E+03   0.578E+00 0.117E+01 -.136E+00   -.557E-02 -.142E-01 0.862E-02
   -.536E+03 0.875E+02 -.905E+03   0.595E+03 -.906E+02 0.921E+03   -.576E+02 0.360E+01 -.156E+02   -.134E-01 0.929E-02 -.187E-01
   0.246E+03 0.515E+03 -.883E+03   -.272E+03 -.565E+03 0.901E+03   0.259E+02 0.497E+02 -.159E+02   0.593E-02 0.163E-01 -.148E-01
   0.243E+03 -.365E+03 -.103E+04   -.270E+03 0.411E+03 0.106E+04   0.257E+02 -.443E+02 -.305E+02   0.788E-02 -.291E-02 -.234E-01
   -.215E+03 0.417E+03 -.308E+03   0.246E+03 -.458E+03 0.277E+03   -.293E+02 0.420E+02 0.318E+02   -.106E-01 0.394E-01 0.245E-01
   0.554E+03 0.291E+02 -.435E+03   -.612E+03 -.255E+02 0.420E+03   0.581E+02 -.207E+01 0.164E+02   0.410E-01 0.132E-01 0.144E-01
   -.451E+03 -.125E+03 -.440E+03   0.510E+03 0.114E+03 0.435E+03   -.574E+02 0.106E+02 0.652E+01   -.271E-01 -.775E-02 0.134E-01
   0.207E+03 -.434E+03 -.479E+03   -.253E+03 0.474E+03 0.480E+03   0.443E+02 -.387E+02 0.112E+01   0.117E-01 -.263E-01 0.110E-01
   -.581E+01 -.129E+02 0.444E+01   0.284E-13 -.171E-12 -.114E-11   0.579E+01 0.128E+02 -.482E+01   0.175E-01 0.503E-01 0.398E+00

 POSITION                                       TOTAL-FORCE (eV/Angst)
      1.25599     -0.72491     17.55789        -0.000197      0.001295      0.000586
      2.51201      1.45068     17.55669        -0.000566      0.006978      0.000966
      3.76825      3.62634     17.55594        -0.000244     -0.005513      0.000925
      5.02452      5.80191     17.55634        -0.000345     -0.000820     -0.000193
      6.28065      7.97755     17.55804         0.000490      0.000984      0.000375
      7.53661     10.15313     17.55878         0.000356     -0.000357      0.001367
      2.51221     -2.90074     17.55864         0.000090     -0.000353      0.001404
      3.76805     -0.72524     17.55640         0.000033      0.002327      0.003402
      5.02432      1.45060     17.55559        -0.002300      0.003520      0.002405
      6.28055      3.62627     17.55576        -0.001485     -0.002494      0.002017
      7.53671      5.80188     17.55663        -0.000025     -0.000348     -0.000395
      8.79277      7.97745     17.55857        -0.000341      0.000797      0.000635
      3.76835     -5.07638     17.55900         0.000454     -0.000509      0.000378
      5.02450     -2.90086     17.55897        -0.002950     -0.001012      0.001097
      6.28081     -0.72534     17.55675         0.000765      0.001519      0.004665
      7.53687      1.45070     17.55686        -0.000522      0.000453      0.001320
      8.79281      3.62625     17.55614        -0.002061     -0.000971      0.000186
     10.04889      5.80189     17.55763         0.000180     -0.000216      0.000330
      5.02456     -7.25183     17.55847        -0.001928     -0.000834      0.000131
      6.28061     -5.07634     17.55887        -0.001398      0.000871      0.000667
      7.53683     -2.90077     17.55781         0.000089      0.000620      0.001728
      8.79290     -0.72496     17.55649         0.000198      0.000588      0.001063
     10.04888      1.45069     17.55625        -0.000509     -0.000478     -0.000391
     11.30494      3.62634     17.55724         0.000208      0.000643      0.000090
      6.28060     -9.42734     17.55816        -0.000440     -0.000526     -0.000203
      7.53678     -7.25177     17.55819        -0.000019     -0.000229      0.000131
      8.79290     -5.07618     17.55814         0.000241      0.001198      0.000266
     10.04897     -2.90047     17.55750        -0.001233     -0.001328      0.000470
     11.30499     -0.72483     17.55724        -0.000552     -0.000280      0.000374
     12.56103      1.45081     17.55779        -0.000702      0.000099     -0.000089
      7.53657    -11.60296     17.55801         0.000182      0.003216      0.000281
      8.79270     -9.42733     17.55714         0.002104     -0.000371      0.000277
     10.04895     -7.25176     17.55713         0.001402      0.000157     -0.000107
     11.30508     -5.07612     17.55792        -0.002335     -0.001786     -0.000762
     12.56105     -2.90051     17.55840         0.000335      0.000145      0.000084
     13.81707     -0.72487     17.55855        -0.000708      0.000069      0.000159
      1.25614      0.72554     17.55750        -0.000627     -0.002972      0.000255
      2.51224      2.90106     17.55617         0.000856     -0.000452      0.000121
      3.76845      5.07660     17.55600         0.000086      0.005604     -0.000538
      5.02460      7.25236     17.55744        -0.000694     -0.000193     -0.000064
      6.28058      9.42799     17.55871         0.000384      0.000308      0.000975
      7.53659     11.60360     17.55874         0.000921      0.001436      0.000741
      2.51215     -1.45026     17.55750         0.000960      0.001505      0.000657
      3.76830      0.72531     17.55672         0.002289     -0.002764     -0.000627
      5.02441      2.90090     17.55556         0.000947      0.000720     -0.000728
      6.28059      5.07661     17.55570         0.000605      0.001723     -0.000776
      7.53673      7.25230     17.55784        -0.000852      0.000226      0.000042
      8.79273      9.42790     17.55902         0.000098      0.000928      0.000987
      3.76840     -3.62584     17.55936        -0.000405      0.000649      0.001664
      5.02446     -1.45017     17.55858        -0.000733      0.000561      0.001355
      6.28039      0.72529     17.55874         0.002184     -0.001303      0.000767
      7.53656      2.90097     17.55605         0.002171      0.000321      0.000846
      8.79278      5.07663     17.55645         0.000666      0.001545     -0.000600
     10.04888      7.25230     17.55863        -0.001031     -0.000078      0.000571
      5.02453     -5.80139     17.55896        -0.000886     -0.000812      0.001463
      6.28063     -3.62579     17.55904        -0.000131     -0.000262      0.002014
      7.53675     -1.45027     17.55675        -0.001055      0.001466      0.001407
      8.79266      0.72544     17.55588         0.001633      0.001089      0.001632
     10.04883      2.90103     17.55607         0.000591      0.003191     -0.000166
     11.30499      5.07675     17.55784        -0.000051      0.000388      0.000091
[...]
      8.79288     -7.97698     17.55742        -0.000848      0.002681     -0.000272
     10.04899     -5.80133     17.55790         0.000669     -0.000373     -0.000346
     11.30502     -3.62567     17.55811         0.000399     -0.000360      0.000255
     12.56104     -1.45005     17.55827         0.000545     -0.000200      0.000438
     13.81709      0.72560     17.55844         0.000784     -0.000565      0.000228
      5.17834     -0.78232     23.62713        -0.008710     -0.004380     -0.040865
      5.02131     -0.57376     22.10891         0.007566      0.022832     -0.021792
      5.77532      1.05945     21.66368        -0.007754     -0.013354      0.019862
      6.46858     -0.85787     23.95999        -0.001554      0.032356     -0.001069
      4.57594     -1.93144     23.97487        -0.005855     -0.016094      0.030472
      4.60087      0.22192     24.29330         0.023681      0.013080     -0.008809
      5.66109     -1.51313     21.42543         0.007520     -0.027419     -0.013289
      3.74071     -0.54461     21.76794        -0.021052     -0.021721     -0.004539
      6.95356      0.84352     21.53088         0.036577     -0.022605     -0.003573
      4.87057      1.85317     21.64110        -0.025351      0.012327      0.003307
    total drift:                               -0.002558     -0.003457      0.013080

  FREE ENERGIE OF THE ION-ELECTRON SYSTEM (eV)
  free  energy   TOTEN  =      -775.19633261 eV

  energy  without entropy=     -775.17059990  energy(sigma->0) =     -775.18346626

 Dimer: Init Mode:
 Dimer: MODECAR found
 Dimer: -----------------
 Dimer: Itr    1 Rot    0

 Dimer: Central Point
 Dimer: F0      0.107269

 Dimer: Projection
 Dimer: N*F0  4.243692454351239E-002
 Dimer: F0sq  1.150660687867554E-002
 Dimer: Feffsq   1.800892564711764E-003

 stress matrix after NEB project (eV)
    -27.25890      0.59574      0.32840
      0.59580    -26.29893      0.24120
      0.32694      0.24119      0.15417
  FORCES: max atom, RMS     0.043147    0.011846
  FORCE total and by dimension    0.107269    0.040865
  Stress total and by dimension   37.891240   27.258897
 OPT: skip step - force has converged

 reached required accuracy - stopping structural energy minimisation
 writing wavefunctions

 total charge

[...]

 magnetization (x)

# of ion       s       p       d       tot
    1       -0.000  -0.000   0.000  -0.000
    2       -0.000   0.000   0.000   0.000
    3       -0.000  -0.000   0.000  -0.000
    4       -0.000  -0.000   0.000  -0.000
    5       -0.000  -0.000   0.000  -0.000
    6       -0.000  -0.000   0.000  -0.000
    7       -0.000  -0.000   0.000  -0.000
    8       -0.000  -0.000   0.000  -0.000
    9       -0.000  -0.000   0.000  -0.000
   10       -0.000  -0.000   0.000  -0.000
   11       -0.000  -0.000   0.000  -0.000
   12       -0.000  -0.000   0.000  -0.000
   13       -0.000  -0.000   0.000  -0.000
   14       -0.000  -0.000   0.000  -0.000
   15       -0.000  -0.000   0.000  -0.000
   16        0.000   0.000   0.000   0.000
   17       -0.000  -0.000   0.000  -0.000
   18       -0.000  -0.000   0.000  -0.000
   19       -0.000  -0.000   0.000  -0.000
   20       -0.000  -0.000   0.000  -0.000
   21       -0.000  -0.000   0.000  -0.000
   22       -0.000  -0.000   0.000  -0.000
   23       -0.000  -0.000   0.000  -0.000
   24       -0.000  -0.000   0.000  -0.000
   25       -0.000  -0.000   0.000  -0.000
   26       -0.000  -0.000   0.000  -0.000
   27       -0.000  -0.000   0.000  -0.000
   28       -0.000  -0.000   0.000  -0.000
   29       -0.000  -0.000   0.000  -0.000
   30       -0.000  -0.000   0.000  -0.000
   31       -0.000  -0.000   0.000  -0.000
   32       -0.000  -0.000   0.000  -0.000
   33       -0.000  -0.000   0.000  -0.000
   34       -0.000  -0.000   0.000  -0.000
   35       -0.000  -0.000   0.000  -0.000
   36       -0.000  -0.000   0.000  -0.000
   37        0.000   0.000   0.000   0.000
   38       -0.000   0.000   0.000   0.000
   39        0.000   0.000   0.000   0.000
   40       -0.000   0.000   0.000   0.000
   41       -0.000   0.000   0.000   0.000
   42        0.000   0.000   0.000   0.000
   43        0.000   0.000   0.000   0.000
   44        0.000   0.000   0.000   0.000
   45        0.000   0.000   0.000   0.000
   46        0.000   0.000   0.000   0.000
   47        0.000   0.000   0.000   0.000
   48       -0.000   0.000   0.000   0.000
   49       -0.000   0.000   0.000   0.000
   50       -0.000   0.000   0.000   0.000
   51        0.000   0.000   0.000   0.000
   52        0.000   0.000   0.000   0.000
   53        0.000   0.000   0.000   0.000
   54        0.000   0.000   0.000   0.000
   55        0.000   0.000   0.000   0.000
   56        0.000   0.000   0.000   0.000
   57        0.000   0.000   0.000   0.000
   58        0.000   0.000   0.000   0.000
   59        0.000   0.000   0.000   0.000
   60        0.000   0.000   0.000   0.000
[...]
   68       -0.000   0.000   0.000   0.000
   69        0.000   0.000   0.000   0.000
   70        0.000   0.000   0.000   0.000
   71        0.000   0.000   0.000   0.000
   72       -0.000   0.000   0.000   0.000
   73        0.005   0.014   0.000   0.019
   74        0.035   0.189   0.000   0.224
   75       -0.014  -0.025   0.000  -0.039
   76       -0.000  -0.000   0.000  -0.000
   77        0.000   0.018   0.000   0.019
   78       -0.000  -0.001   0.000  -0.001
   79        0.001   0.049   0.000   0.050
   80        0.001   0.046   0.000   0.047
   81        0.002   0.169   0.000   0.171
   82        0.002   0.160   0.000   0.163
tot          0.034   0.620   0.000   0.654