 vasp.5.4.4.18Apr17-6-g9f103f2a35 (build May 01 2020 14:57:12) complex

 executed on             LinuxIFC date 2020.10.04  18:47:26

 INCAR:
 POTCAR:    PAW_PBE B 06Sep2000
 POTCAR:    PAW_PBE N 08Apr2002
 POTCAR:    PAW_PBE C 08Apr2002
 POTCAR:    PAW_PBE F 08Apr2002
 POTCAR:    PAW_PBE O 08Apr2002

 POTCAR:    PAW_PBE B 06Sep2000
   VRHFIN =B: s2p1

   TITEL  = PAW_PBE B 06Sep2000
   POMASS =   10.811; ZVAL   =    3.000    mass and valenz
   ENMAX  =  318.614; ENMIN  =  238.960 eV

 POTCAR:    PAW_PBE N 08Apr2002
   VRHFIN =N: s2p3

   TITEL  = PAW_PBE N 08Apr2002
   POMASS =   14.001; ZVAL   =    5.000    mass and valenz
   ENMAX  =  400.000; ENMIN  =  300.000 eV

 POTCAR:    PAW_PBE C 08Apr2002
   VRHFIN =C: s2p2

[...]

 POTCAR:    PAW_PBE F 08Apr2002
   VRHFIN =F: s2p5

[...]

 POTCAR:    PAW_PBE O 08Apr2002
   VRHFIN =O: s2p4

   TITEL  = PAW_PBE O 08Apr2002
   POMASS =   16.000; ZVAL   =    6.000    mass and valenz
   ENMAX  =  400.000; ENMIN  =  300.000 eV

 Optimization of the real space projectors (new method)

 maximal supplied QI-value         = 22.11
 optimisation between [QCUT,QGAM] = [ 11.94, 23.88] = [ 39.92,159.67] Ry
 Optimized for a Real-space Cutoff    1.18 Angstroem

   l    n(q)    QCUT    max X(q) W(low)/X(q) W(high)/X(q)  e(spline)
   0      8    11.939    53.033    0.11E-03    0.34E-03    0.60E-07
   0      8    11.939    34.740    0.11E-03    0.34E-03    0.59E-07
   1      8    11.939    30.949    0.22E-03    0.20E-03    0.17E-06
   1      8    11.939    19.518    0.20E-03    0.18E-03    0.16E-06
 Optimization of the real space projectors (new method)

[...]

   l    n(q)    QCUT    max X(q) W(low)/X(q) W(high)/X(q)  e(spline)
   0      8    11.883    14.049    0.56E-04    0.86E-04    0.22E-06
   0      8    11.883     8.945    0.81E-04    0.11E-03    0.30E-06
   1      8    11.883     7.086    0.16E-03    0.15E-04    0.31E-06
   1      8    11.883     6.747    0.15E-03    0.14E-04    0.28E-06
 Optimization of the real space projectors (new method)

 maximal supplied QI-value         = 24.76
 optimisation between [QCUT,QGAM] = [ 11.88, 24.01] = [ 39.54,161.47] Ry
 Optimized for a Real-space Cutoff    1.18 Angstroem

   l    n(q)    QCUT    max X(q) W(low)/X(q) W(high)/X(q)  e(spline)
   0      8    11.883    20.381    0.86E-04    0.11E-03    0.31E-06
   0      8    11.883    15.268    0.94E-04    0.12E-03    0.33E-06
   1      8    11.883     5.964    0.19E-03    0.18E-04    0.33E-06
   1      8    11.883     5.382    0.17E-03    0.20E-04    0.29E-06
  PAW_PBE B 06Sep2000                   :
  PAW_PBE N 08Apr2002                   :
  PAW_PBE C 08Apr2002                   :
  PAW_PBE F 08Apr2002                   :
  PAW_PBE O 08Apr2002                   :

 POSCAR: B N C F O
  positions in direct lattice
  velocities in cartesian coordinates

 METAGGA = SCAN     LMAXTAU =  6    LMIXTAU =  F

 ion  position               nearest neighbor table
   1  0.167  0.083  0.500-  20 1.45  17 1.45  21 1.45
   2  0.167  0.333  0.500-  17 1.45  18 1.45  22 1.45
   3  0.167  0.583  0.500-  19 1.45  18 1.45  23 1.45
   4  0.167  0.833  0.500-  20 1.45  19 1.45  24 1.45
   5  0.417  0.083  0.500-  24 1.45  25 1.45  21 1.45
   6  0.417  0.333  0.500-  21 1.45  26 1.45  22 1.45
   7  0.417  0.583  0.500-  23 1.45  22 1.45  27 1.45
   8  0.417  0.833  0.500-  24 1.45  28 1.45  23 1.45
   9  0.667  0.083  0.500-  29 1.45  25 1.45  28 1.45
  10  0.667  0.333  0.500-  30 1.45  25 1.45  26 1.45
  11  0.667  0.583  0.500-  31 1.45  26 1.45  27 1.45
  12  0.667  0.833  0.500-  32 1.45  28 1.45  27 1.45
  13  0.917  0.083  0.500-  29 1.45  17 1.45  32 1.45
  14  0.917  0.333  0.500-  29 1.45  18 1.45  30 1.45
  15  0.917  0.583  0.500-  19 1.45  30 1.45  31 1.45
  16  0.917  0.833  0.500-  20 1.45  32 1.45  31 1.45
  17  0.083  0.167  0.500-   2 1.45   1 1.45  13 1.45
  18  0.083  0.417  0.500-   2 1.45   3 1.45  14 1.45
  19  0.083  0.667  0.500-  15 1.45   3 1.45   4 1.45
  20  0.083  0.917  0.500-  16 1.45   1 1.45   4 1.45
  21  0.333  0.167  0.500-   6 1.45   5 1.45   1 1.45
  22  0.333  0.417  0.500-   7 1.45   6 1.45   2 1.45
  23  0.333  0.667  0.500-   7 1.45   8 1.45   3 1.45
  24  0.333  0.917  0.500-   8 1.45   5 1.45   4 1.45
  25  0.583  0.167  0.500-  10 1.45   5 1.45   9 1.45
  26  0.583  0.417  0.500-  11 1.45   6 1.45  10 1.45
  27  0.583  0.667  0.500-   7 1.45  11 1.45  12 1.45
  28  0.583  0.917  0.500-  12 1.45   8 1.45   9 1.45
  29  0.833  0.167  0.500-   9 1.45  13 1.45  14 1.45
  30  0.833  0.417  0.500-  10 1.45  15 1.45  14 1.45
  31  0.833  0.667  0.500-  11 1.45  16 1.45  15 1.45
  32  0.833  0.917  0.500-  12 1.45  16 1.45  13 1.45
  33  0.559  0.470  0.673-  36 1.34  37 1.34  38 1.34  34 1.54
  34  0.531  0.474  0.630-  40 1.36  39 1.36  33 1.54  35 1.55
  35  0.514  0.613  0.618-  42 1.25  41 1.25  34 1.55
  36  0.691  0.594  0.683-  33 1.34
  37  0.566  0.344  0.682-  33 1.34
  38  0.444  0.468  0.693-  33 1.34
  39  0.651  0.476  0.612-  34 1.36
  40  0.401  0.340  0.621-  34 1.36
  41  0.635  0.736  0.611-  35 1.25
  42  0.382  0.593  0.615-  35 1.25

IMPORTANT INFORMATION: All symmetrisations will be switched off!
NOSYMM: (Re-)initialisation of all symmetry stuff for point group C_1.

 KPOINTS: K-Point Grid

Automatic generation of k-mesh.
Space group operators:
 irot       det(A)        alpha          n_x          n_y          n_z        tau_x        tau_y        tau_z
    1     1.000000     0.000000     1.000000     0.000000     0.000000     0.000000     0.000000     0.000000

 Subroutine IBZKPT returns following result:

 Found     24 irreducible k-points:

 Following reciprocal coordinates:
            Coordinates               Weight
  0.125000  0.125000  0.000000     16.000000
  0.250000 -0.125000  0.000000     16.000000
  0.125000 -0.250000  0.000000     16.000000
  0.375000  0.125000  0.000000     16.000000
  0.500000 -0.375000  0.000000     16.000000
  0.125000  0.500000  0.000000     16.000000
 -0.125000 -0.375000  0.000000     16.000000
  0.375000  0.500000  0.000000     16.000000
  0.500000 -0.125000  0.000000     16.000000
 -0.375000  0.125000  0.000000     16.000000
 -0.250000  0.375000  0.000000     16.000000
  0.125000  0.250000  0.000000     16.000000
 -0.125000  0.375000  0.000000     16.000000
 -0.375000  0.250000  0.000000     16.000000
 -0.250000 -0.125000  0.000000     16.000000
 -0.125000  0.125000  0.000000     16.000000
  0.000000  0.125000  0.000000     16.000000
  0.125000  0.000000  0.000000     16.000000
  0.375000  0.375000  0.000000     16.000000
 -0.250000 -0.375000  0.000000     16.000000
  0.375000  0.250000  0.000000     16.000000
 -0.375000  0.375000  0.000000     16.000000
  0.000000  0.375000  0.000000     16.000000
  0.375000  0.000000  0.000000     16.000000

 Following cartesian coordinates:
            Coordinates               Weight
  0.024879  0.000000  0.000000     16.000000
  0.012439 -0.021546  0.000000     16.000000
 -0.012439 -0.021546  0.000000     16.000000
  0.049758 -0.014364  0.000000     16.000000
  0.012439 -0.050273  0.000000     16.000000
  0.062197  0.021546  0.000000     16.000000
 -0.049758 -0.014364  0.000000     16.000000
  0.087076  0.007182  0.000000     16.000000
  0.037318 -0.035909  0.000000     16.000000
 -0.024879  0.028727  0.000000     16.000000
  0.012439  0.035909  0.000000     16.000000
  0.037318  0.007182  0.000000     16.000000
  0.024879  0.028727  0.000000     16.000000
 -0.012439  0.035909  0.000000     16.000000
 -0.037318  0.007182  0.000000     16.000000
  0.000000  0.014364  0.000000     16.000000
  0.012439  0.007182  0.000000     16.000000
  0.012439 -0.007182  0.000000     16.000000
  0.074636  0.000000  0.000000     16.000000
 -0.062197 -0.007182  0.000000     16.000000
  0.062197 -0.007182  0.000000     16.000000
  0.000000  0.043091  0.000000     16.000000
  0.037318  0.021546  0.000000     16.000000
  0.037318 -0.021546  0.000000     16.000000

 SYSTEM =  SiC
 POSCAR =  B N C F O

 Startparameter for this run:
   NWRITE =      2    write-flag & timer
   PREC   = accura    normal or accurate (medium, high low for compatibility)
   ISTART =      1    job   : 0-new  1-cont  2-samecut
   ICHARG =      0    charge: 1-file 2-atom 10-const
   ISPIN  =      2    spin polarized calculation?
   LNONCOLLINEAR =      F non collinear calculations
   LSORBIT =      F    spin-orbit coupling
   INIWAV =      1    electr: 0-lowe 1-rand  2-diag
   LASPH  =      T    aspherical Exc in radial PAW
   METAGGA=      F    non-selfconsistent MetaGGA calc.

 Electronic Relaxation 1
   ENCUT  =  550.0 eV  40.42 Ry    6.36 a.u.  19.22 19.22 67.15*2*pi/ulx,y,z
   ENINI  =  550.0     initial cutoff
   ENAUG  =  644.9 eV  augmentation charge cutoff
   NELM   =    100;   NELMIN=  2; NELMDL=  0     # of ELM steps
   EDIFF  = 0.1E-04   stopping-criterion for ELM
   LREAL  =      T    real-space projection
   NLSPLINE    = F    spline interpolate recip. space projectors
   LCOMPAT=      F    compatible to vasp.4.4
   GGA_COMPAT  = T    GGA compatible to vasp.4.4-vasp.4.6
   LMAXPAW     = -100 max onsite density
   LMAXMIX     =    2 max onsite mixed and CHGCAR
   VOSKOWN=      0    Vosko Wilk Nusair interpolation
   ROPT   =   -0.00025  -0.00025  -0.00025  -0.00025
   ROPT   =   -0.00025
 Ionic relaxation
   EDIFFG = -.2E-01   stopping-criterion for IOM
   NSW    =    500    number of steps for IOM
   NBLOCK =      1;   KBLOCK =    500    inner block; outer block
   IBRION =      2    ionic relax: 0-MD 1-quasi-New 2-CG
   NFREE  =      1    steps in history (QN), initial steepest desc. (CG)
   ISIF   =      2    stress and relaxation
   IWAVPR =     11    prediction:  0-non 1-charg 2-wave 3-comb
   ISYM   =      0    0-nonsym 1-usesym 2-fastsym
   LCORR  =      T    Harris-Foulkes like correction to forces

   POTIM  = 0.5000    time-step for ionic-motion
   TEIN   =    0.0    initial temperature
   TEBEG  =    0.0;   TEEND  =   0.0 temperature during run
   SMASS  =  -3.00    Nose mass-parameter (am)
   estimated Nose-frequenzy (Omega)   =  0.10E-29 period in steps =****** mass=  -0.231E-26a.u.
   SCALEE = 1.0000    scale energy and forces
   NPACO  =    256;   APACO  = 16.0  distance and # of slots for P.C.
   PSTRESS=    0.0 pullay stress

  Mass of Ions in am
   POMASS =  10.81 14.00 12.01 19.00 16.00
  Ionic Valenz
   ZVAL   =   3.00  5.00  4.00  7.00  6.00
  Atomic Wigner-Seitz radii
  virtual crystal weights
   VCA    =   1.00  1.00  1.00  1.00  1.00
   NELECT =     186.7000    total number of electrons
   NUPDOWN=      -1.0000    fix difference up-down

 DOS related values:
   EMIN   =  10.00;   EMAX   =-10.00  energy-range for DOS
   EFERMI =   0.00
   ISMEAR =     0;   SIGMA  =   0.05  broadening in eV -4-tet -1-fermi 0-gaus

 Electronic relaxation 2 (details)
   IALGO  =     68    algorithm
   LDIAG  =      T    sub-space diagonalisation (order eigenvalues)
   LSUBROT=      F    optimize rotation matrix (better conditioning)
   TURBO    =      0    0=normal 1=particle mesh
   IRESTART =      0    0=no restart 2=restart with 2 vectors
   NREBOOT  =      0    no. of reboots
   NMIN     =      0    reboot dimension
   EREF     =   0.00    reference energy to select bands
[...]

[...]

 spin component 2

[...]

 k-point    24 :       0.3750    0.0000    0.0000
  band No.  band energies     occupation
      1     -35.8481      1.00000
      2     -34.4544      1.00000
      3     -33.5184      1.00000
      4     -33.4567      1.00000
      5     -32.9327      1.00000
      6     -29.3870      1.00000
      7     -26.9980      1.00000
      8     -25.2973      1.00000
      9     -24.9928      1.00000
     10     -24.5506      1.00000
     11     -24.5502      1.00000
     12     -23.7329      1.00000
     13     -23.7325      1.00000
     14     -23.3772      1.00000
     15     -23.2427      1.00000
     16     -23.2424      1.00000
     17     -22.7877      1.00000
     18     -22.4230      1.00000
     19     -22.4229      1.00000
     20     -22.3795      1.00000
     21     -22.3794      1.00000
     22     -21.9262      1.00000
     23     -21.9261      1.00000
     24     -21.2060      1.00000
     25     -18.4972      1.00000
     26     -16.7396      1.00000
     27     -16.2043      1.00000
     28     -16.1742      1.00000
     29     -15.7211      1.00000
     30     -15.7210      1.00000
     31     -15.5066      1.00000
     32     -15.2788      1.00000
     33     -15.2575      1.00000
     34     -15.2574      1.00000
     35     -15.2271      1.00000
     36     -15.2268      1.00000
     37     -14.9835      1.00000
     38     -14.1792      1.00000
     39     -13.8610      1.00000
     40     -13.8609      1.00000
     41     -13.5803      1.00000
     42     -13.5802      1.00000
     43     -13.4369      1.00000
     44     -13.2039      1.00000
     45     -13.2038      1.00000
     46     -12.5953      1.00000
     47     -12.5527      1.00000
     48     -12.4877      1.00000
     49     -12.1988      1.00000
     50     -12.1987      1.00000
     51     -12.0678      1.00000
     52     -11.8814      1.00000
     53     -11.8246      1.00000
     54     -11.7988      1.00000
     55     -11.6113      1.00000
     56     -11.6110      1.00000
     57     -11.5877      1.00000
     58     -11.5507      1.00000
     59     -11.5506      1.00000
     60     -11.4082      1.00000
[...]
    130       1.6129      0.00000
    131       1.6219      0.00000
    132       1.6295      0.00000
    133       1.7901      0.00000
    134       1.8458      0.00000
    135       1.9529      0.00000
    136       1.9902      0.00000
    137       2.0470      0.00000
    138       2.0831      0.00000
    139       2.1678      0.00000
    140       2.2644      0.00000
    141       2.2967      0.00000
    142       2.3532      0.00000
    143       2.5010      0.00000
    144       2.5244      0.00000

[...]

 soft charge-density along one line, spin component           2
         0         1         2         3         4         5         6         7         8         9
 total charge-density along one line

------------------------ aborting loop because EDIFF is reached ----------------------------------------

[...]

  FORCE on cell =-STRESS in cart. coord.  units (eV):
  Direction    XX          YY          ZZ          XY          YZ          ZX
  Alpha Z    57.55240    57.55240    57.55240
  Ewald   65327.75785 65415.89764-68548.39369    -8.48619  -350.96060  -152.45060
  Hartree 65988.71849 66206.81393-61670.53279    72.94797  -339.35964  -108.72364
  E(xc)    -833.24654  -832.69030  -838.74901     0.27986    -0.50894    -0.10727
  Local  ************************127752.94036   -86.01473   705.47419   257.29183
  n-local  -488.76462  -488.67172  -480.96682     0.27376     1.75528     0.91136
  augment   119.14250   122.61422   129.33840     1.83417    -2.29843     0.14716
  Kinetic  3273.31029  3307.49435  3598.84219    19.35013   -13.84360     3.25618
  Fock        0.00000     0.00000     0.00000     0.00000     0.00000     0.00000
  Total     -13.39811   -13.12427     0.03105     0.18497     0.25826     0.32502
  in kB      -6.99053    -6.84766     0.01620     0.09651     0.13475     0.16958

 VOLUME and BASIS-vectors are now :
  energy-cutoff  :      550.00
  volume of cell :     3070.74
      direct lattice vectors                 reciprocal lattice vectors
     5.024366704 -8.702497373  0.000000000     0.099515029 -0.057454772  0.000000000
     5.024366704  8.702497373  0.000000000     0.099515029  0.057454772  0.000000000
     0.000000000  0.000000000 35.114664386     0.000000000  0.000000000  0.028478131

  length of vectors
    10.048767154 10.048767154 35.114664386     0.114909929  0.114909929  0.028478131

 FORCES acting on ions
    electron-ion (+dipol)            ewald-force                    non-local-force                 convergence-correction
   0.820E+01 0.160E+01 0.124E+03   -.820E+01 -.154E+01 -.123E+03   0.486E-02 -.890E-03 -.825E-03   0.665E-04 -.428E-04 0.345E-03
   0.130E+02 -.632E+01 0.131E+03   -.129E+02 0.636E+01 -.129E+03   0.984E-02 -.595E-02 0.158E-02   -.958E-04 0.884E-06 0.369E-03
   0.392E+01 -.878E+01 0.126E+03   -.379E+01 0.862E+01 -.124E+03   0.328E-02 -.452E-02 -.225E-03   -.884E-04 0.552E-04 0.306E-03
   -.776E+00 -.573E+00 0.119E+03   0.748E+00 0.489E+00 -.118E+03   0.175E-03 -.196E-03 -.110E-02   0.882E-04 0.552E-05 0.317E-03
   0.756E+01 0.545E+01 0.126E+03   -.757E+01 -.551E+01 -.124E+03   0.293E-02 0.365E-02 -.834E-03   0.258E-04 0.270E-04 0.404E-03
   0.135E+02 0.489E+01 0.148E+03   -.134E+02 -.476E+01 -.147E+03   0.919E-02 0.447E-02 0.536E-04   -.132E-03 -.117E-03 0.430E-03
   0.385E+01 -.121E+02 0.152E+03   -.373E+01 0.122E+02 -.150E+03   0.203E-02 -.105E-01 -.125E-02   -.146E-03 0.323E-04 0.284E-03
   -.195E+01 -.115E+02 0.128E+03   0.190E+01 0.113E+02 -.126E+03   -.228E-02 -.517E-02 0.749E-03   0.482E-04 0.176E-03 0.325E-03
   -.322E+01 0.553E+00 0.122E+03   0.310E+01 -.692E+00 -.121E+03   -.353E-02 0.129E-02 -.117E-03   0.885E-04 0.117E-03 0.371E-03
   0.128E+01 0.151E+02 0.136E+03   -.124E+01 -.150E+02 -.135E+03   0.187E-03 0.110E-01 0.198E-02   -.751E-04 -.102E-03 0.404E-03
   -.938E+01 0.664E+01 0.154E+03   0.943E+01 -.645E+01 -.152E+03   -.867E-02 0.594E-02 0.992E-03   -.958E-04 -.165E-03 0.268E-03
   -.138E+02 -.783E+01 0.139E+03   0.137E+02 0.781E+01 -.137E+03   -.105E-01 -.590E-02 0.279E-02   0.124E-03 0.127E-03 0.233E-03
   -.309E+01 -.215E+01 0.120E+03   0.295E+01 0.213E+01 -.119E+03   -.855E-03 -.349E-02 -.241E-03   0.120E-03 0.754E-04 0.309E-03
   0.126E+01 0.312E+01 0.120E+03   -.122E+01 -.316E+01 -.119E+03   0.235E-02 0.183E-02 -.342E-03   -.464E-04 0.130E-04 0.348E-03
   -.805E+01 0.863E+01 0.128E+03   0.805E+01 -.856E+01 -.126E+03   -.274E-02 0.489E-02 0.275E-03   -.360E-04 -.131E-03 0.304E-03
   -.123E+02 0.323E+01 0.127E+03   0.122E+02 -.310E+01 -.126E+03   -.493E-02 -.650E-04 0.107E-02   0.159E-03 -.719E-04 0.246E-03
   0.128E+02 -.367E+01 0.206E+03   -.128E+02 0.373E+01 -.204E+03   0.654E-02 0.214E-02 0.828E-02   0.574E-04 -.121E-04 0.677E-03
   0.120E+02 -.892E+01 0.207E+03   -.117E+02 0.882E+01 -.205E+03   -.171E-02 -.707E-02 0.496E-02   -.163E-03 0.525E-04 0.690E-03
   -.451E+01 -.111E+01 0.202E+03   0.457E+01 0.970E+00 -.200E+03   -.626E-02 -.154E-02 0.946E-02   -.939E-05 -.537E-04 0.626E-03
   -.339E+01 0.397E+01 0.201E+03   0.325E+01 -.390E+01 -.199E+03   0.770E-05 0.386E-02 0.942E-02   0.250E-03 -.746E-04 0.604E-03
   0.224E+02 0.950E+01 0.221E+03   -.223E+02 -.942E+01 -.219E+03   0.166E-01 0.917E-02 0.100E-01   -.217E-04 -.112E-03 0.797E-03
   0.231E+02 -.101E+02 0.245E+03   -.228E+02 0.103E+02 -.243E+03   0.170E-01 -.780E-02 0.698E-02   -.245E-03 -.852E-04 0.849E-03
   0.405E+01 -.254E+02 0.227E+03   -.392E+01 0.251E+02 -.224E+03   -.834E-03 -.218E-01 0.984E-02   -.118E-03 0.183E-03 0.565E-03
   0.398E+01 -.495E+01 0.202E+03   -.405E+01 0.467E+01 -.200E+03   0.597E-02 -.196E-02 0.109E-01   0.120E-03 0.163E-03 0.745E-03
   0.572E+01 0.148E+02 0.212E+03   -.577E+01 -.148E+02 -.210E+03   0.759E-02 0.526E-02 0.685E-02   0.745E-05 0.591E-04 0.817E-03
   0.460E+01 0.199E+02 0.253E+03   -.445E+01 -.196E+02 -.250E+03   0.120E-02 0.146E-01 -.244E-02   -.247E-03 -.257E-03 0.813E-03
   -.145E+02 -.989E+01 0.257E+03   0.145E+02 0.101E+02 -.254E+03   -.183E-01 -.104E-01 -.112E-01   -.135E-03 0.246E-05 0.392E-03
   -.127E+02 -.149E+02 0.215E+03   0.124E+02 0.146E+02 -.213E+03   0.699E-03 -.871E-02 0.304E-02   0.171E-03 0.313E-03 0.712E-03
   -.334E+01 0.109E+01 0.199E+03   0.320E+01 -.122E+01 -.197E+03   0.550E-03 0.715E-03 0.441E-02   0.930E-04 0.141E-03 0.679E-03
   -.520E+01 0.190E+02 0.213E+03   0.526E+01 -.189E+02 -.211E+03   -.642E-02 0.515E-02 0.165E-03   -.134E-03 -.138E-03 0.706E-03
   -.235E+02 0.142E+02 0.229E+03   0.234E+02 -.139E+02 -.226E+03   -.180E-01 0.923E-02 0.312E-02   0.229E-04 -.276E-03 0.536E-03
   -.214E+02 -.341E+01 0.214E+03   0.211E+02 0.348E+01 -.212E+03   -.627E-02 0.259E-02 0.430E-03   0.301E-03 0.119E-03 0.545E-03
   -.228E+00 0.166E+02 -.437E+03   -.523E+00 -.147E+02 0.428E+03   0.852E+00 -.159E+01 0.984E+01   -.649E-03 -.683E-03 -.841E-03
   -.953E+01 -.373E+02 -.310E+03   0.150E+02 0.466E+02 0.316E+03   -.515E+01 -.860E+01 -.443E+01   -.720E-03 -.737E-03 -.955E-03
   -.268E+02 -.773E+02 -.290E+03   0.261E+02 0.758E+02 0.292E+03   0.131E+01 0.270E+01 -.494E+00   -.873E-03 -.622E-03 -.796E-03
   -.511E+03 0.704E+02 -.957E+03   0.568E+03 -.733E+02 0.974E+03   -.558E+02 0.331E+01 -.164E+02   0.565E-03 -.560E-03 -.428E-03
   0.230E+03 0.490E+03 -.922E+03   -.256E+03 -.541E+03 0.937E+03   0.255E+02 0.501E+02 -.142E+02   -.937E-03 -.982E-03 -.237E-02
   0.233E+03 -.349E+03 -.109E+04   -.259E+03 0.392E+03 0.112E+04   0.254E+02 -.420E+02 -.309E+02   -.127E-02 0.823E-04 -.408E-03
   -.203E+03 0.405E+03 -.276E+03   0.229E+03 -.446E+03 0.253E+03   -.245E+02 0.409E+02 0.269E+02   -.138E-02 -.445E-03 -.108E-02
   0.529E+03 0.324E+02 -.414E+03   -.583E+03 -.324E+02 0.404E+03   0.534E+02 0.122E+01 0.134E+02   -.781E-04 -.103E-02 -.127E-02
   -.416E+03 -.134E+03 -.389E+03   0.469E+03 0.137E+03 0.383E+03   -.509E+02 -.159E+01 0.931E+01   0.713E-03 -.120E-02 -.168E-02
   0.177E+03 -.412E+03 -.431E+03   -.209E+03 0.455E+03 0.430E+03   0.315E+02 -.409E+02 0.451E+01   -.124E-02 0.918E-04 -.928E-03
   -.158E+01 -.349E+01 0.239E+01   0.000E+00 0.114E-12 0.000E+00   0.159E+01 0.347E+01 -.241E+01   -.591E-02 -.605E-02 0.526E-02

 POSITION                                       TOTAL-FORCE (eV/Angst)
      1.25596     -0.72496     17.55936         0.000695     -0.000229      0.001107
      2.51191      1.45078     17.56020         0.002411     -0.001265      0.000682
      3.76816      3.62635     17.55967         0.001330     -0.001131      0.000489
      5.02431      5.80191     17.55909         0.000171     -0.000525      0.001603
      2.51209     -2.90071     17.55955         0.000049      0.000610      0.000664
      3.76802     -0.72509     17.56013         0.001618      0.001230     -0.000174
      5.02424      1.45092     17.56021         0.001121     -0.001078     -0.000592
      6.28046      3.62636     17.56017        -0.000760     -0.001741      0.000056
      3.76830     -5.07629     17.56022        -0.001517     -0.000239      0.000730
      5.02431     -2.90085     17.56076        -0.000054      0.002498      0.000780
      6.28063     -0.72509     17.56106        -0.001261      0.001613     -0.000699
      7.53670      1.45079     17.56174        -0.002630     -0.001202     -0.000741
      5.02431     -7.25180     17.56005        -0.001089     -0.000663      0.000954
      6.28036     -5.07630     17.55982         0.000207      0.000051      0.001302
      7.53655     -2.90072     17.56008        -0.000216      0.001995      0.000679
      8.79267     -0.72497     17.56043        -0.001397      0.000927      0.000634
      1.25605      0.72545     17.55935        -0.001292     -0.000081      0.001723
      2.51217      2.90105     17.55948        -0.002113      0.001072      0.001791
      3.76822      5.07667     17.55897         0.000048      0.000947      0.001853
      5.02430      7.25234     17.55900         0.000590     -0.000757      0.001308
      2.51215     -1.45020     17.55931        -0.002348     -0.000727      0.001794
      3.76831      0.72543     17.56088        -0.002363     -0.000344      0.003261
      5.02433      2.90106     17.55948        -0.001071      0.002814      0.002236
      6.28040      5.07667     17.55893        -0.000251      0.001642      0.001883
      3.76823     -3.62583     17.55979         0.000173     -0.000459      0.001774
      5.02435     -1.45007     17.56177        -0.000956     -0.002535      0.002667
      6.28025      0.72545     17.56239         0.000858     -0.000493      0.002524
      7.53646      2.90102     17.56045         0.001905      0.001795      0.003158
      5.02430     -5.80145     17.55956         0.001045      0.000264      0.001433
      6.28039     -3.62580     17.56008         0.000051     -0.001408      0.001321
      7.53647     -1.45017     17.56045         0.001870     -0.002001      0.002645
      8.79249      0.72546     17.56053         0.002795     -0.000089      0.002560
      5.17067     -0.76953     23.63494         0.003388      0.005851      0.006375
      5.04901     -0.49284     22.12702         0.002020      0.001892      0.001852
      5.66117      0.85261     21.68399        -0.004333     -0.003590     -0.016271
      6.45942     -0.84083     24.00048         0.008818     -0.003036     -0.007834
      4.57584     -1.93113     23.95035         0.004581      0.002704     -0.006878
      4.58139      0.21308     24.33527        -0.016173      0.007093     -0.006541
      5.66131     -1.52335     21.47830        -0.007542     -0.000669     -0.003535
      3.72350     -0.53257     21.82100         0.002337     -0.008789     -0.004442
      6.88966      0.87883     21.46718         0.009342     -0.007661     -0.009324
      4.89582      1.83216     21.58268        -0.000055      0.005715      0.005193
    total drift:                                0.008265     -0.026005     -0.016446

  FREE ENERGIE OF THE ION-ELECTRON SYSTEM (eV)
  free  energy   TOTEN  =      -384.93648669 eV

  energy  without entropy=     -384.91618058  energy(sigma->0) =     -384.92633363

 d Force = 0.4169406E-04[ 0.226E-04, 0.608E-04]  d Energy = 0.4812733E-04-0.643E-05
 d Force =-0.1338576E+01[-0.134E+01,-0.134E+01]  d Ewald  =-0.1338576E+01-0.168E-06

 Conjugate gradient step on ions:
 trial-energy change:   -0.000048  1 .order   -0.000042   -0.000061   -0.000023
  (g-gl).g = 0.232E-03      g.g   = 0.227E-03  gl.gl    = 0.323E-03
 g(Force)  = 0.227E-03   g(Stress)= 0.000E+00 ortho     = 0.143E-05
 gamma     =   0.71862
 trial     =   0.26718
 opt step  =   0.42513  (harmonic =   0.42513) maximal distance =0.00080797
 next E    =  -384.936487   (d E  =  -0.00005)

 reached required accuracy - stopping structural energy minimisation
 writing wavefunctions

 total charge

[...]

 magnetization (x)

# of ion       s       p       d       tot
    1        0.000   0.000   0.000   0.000
    2        0.000   0.000   0.000   0.000
    3        0.000   0.000   0.000   0.000
    4        0.000   0.000   0.000   0.000
    5        0.000   0.000   0.000   0.000
    6        0.000   0.000   0.000   0.000
    7        0.000   0.000   0.000   0.000
    8        0.000   0.000   0.000   0.000
    9        0.000   0.000   0.000   0.000
   10        0.000   0.000   0.000   0.000
   11        0.000   0.000   0.000   0.000
   12        0.000   0.000   0.000   0.000
   13        0.000   0.000   0.000   0.000
   14        0.000   0.000   0.000   0.000
   15        0.000   0.000   0.000   0.000
   16        0.000   0.000   0.000   0.000
   17       -0.000  -0.000   0.000  -0.000
   18       -0.000  -0.000   0.000  -0.000
   19       -0.000  -0.000   0.000  -0.000
   20       -0.000  -0.000   0.000  -0.000
   21       -0.000  -0.000   0.000  -0.000
   22       -0.000  -0.000   0.000  -0.000
   23       -0.000  -0.000   0.000  -0.000
   24       -0.000  -0.000   0.000  -0.000
   25       -0.000  -0.000   0.000  -0.000
   26       -0.000  -0.000   0.000  -0.000
   27       -0.000  -0.000   0.000  -0.000
   28       -0.000  -0.000   0.000  -0.000
   29       -0.000  -0.000   0.000  -0.000
   30       -0.000  -0.000   0.000  -0.000
   31       -0.000  -0.000   0.000  -0.000
   32       -0.000  -0.000   0.000  -0.000
   33        0.000   0.000   0.000   0.000
   34        0.001   0.002   0.000   0.003
   35        0.003   0.014   0.000   0.016
   36       -0.000  -0.000   0.000  -0.000
   37        0.000   0.000   0.000   0.000
   38       -0.000  -0.000   0.000  -0.000
   39       -0.000  -0.004   0.000  -0.004
   40       -0.000  -0.005   0.000  -0.005
   41       -0.002  -0.187   0.000  -0.190
   42       -0.002  -0.185   0.000  -0.188
tot         -0.001  -0.367   0.000  -0.369