 vasp.5.4.4.18Apr17-6-g9f103f2a35 (build May 01 2020 14:57:12) complex

 executed on             LinuxIFC date 2020.10.05  12:22:10

 INCAR:
 POTCAR:    PAW_PBE B 06Sep2000
 POTCAR:    PAW_PBE N 08Apr2002
 POTCAR:    PAW_PBE C 08Apr2002
 POTCAR:    PAW_PBE F 08Apr2002
 POTCAR:    PAW_PBE O 08Apr2002

 POTCAR:    PAW_PBE B 06Sep2000
   VRHFIN =B: s2p1

   TITEL  = PAW_PBE B 06Sep2000
   POMASS =   10.811; ZVAL   =    3.000    mass and valenz
   ENMAX  =  318.614; ENMIN  =  238.960 eV

 POTCAR:    PAW_PBE N 08Apr2002
   VRHFIN =N: s2p3

   TITEL  = PAW_PBE N 08Apr2002
   POMASS =   14.001; ZVAL   =    5.000    mass and valenz
   ENMAX  =  400.000; ENMIN  =  300.000 eV

 POTCAR:    PAW_PBE C 08Apr2002
   VRHFIN =C: s2p2

[...]

 POTCAR:    PAW_PBE F 08Apr2002
   VRHFIN =F: s2p5

[...]

 POTCAR:    PAW_PBE O 08Apr2002
   VRHFIN =O: s2p4

   TITEL  = PAW_PBE O 08Apr2002
   POMASS =   16.000; ZVAL   =    6.000    mass and valenz
   ENMAX  =  400.000; ENMIN  =  300.000 eV

 Optimization of the real space projectors (new method)

 maximal supplied QI-value         = 22.11
 optimisation between [QCUT,QGAM] = [ 11.94, 23.88] = [ 39.92,159.67] Ry
 Optimized for a Real-space Cutoff    1.18 Angstroem

   l    n(q)    QCUT    max X(q) W(low)/X(q) W(high)/X(q)  e(spline)
   0      8    11.939    53.033    0.11E-03    0.34E-03    0.60E-07
   0      8    11.939    34.740    0.11E-03    0.34E-03    0.59E-07
   1      8    11.939    30.949    0.22E-03    0.20E-03    0.17E-06
   1      8    11.939    19.518    0.20E-03    0.18E-03    0.16E-06
 Optimization of the real space projectors (new method)

[...]

   l    n(q)    QCUT    max X(q) W(low)/X(q) W(high)/X(q)  e(spline)
   0      8    11.883    14.049    0.56E-04    0.86E-04    0.22E-06
   0      8    11.883     8.945    0.81E-04    0.11E-03    0.30E-06
   1      8    11.883     7.086    0.16E-03    0.15E-04    0.31E-06
   1      8    11.883     6.747    0.15E-03    0.14E-04    0.28E-06
 Optimization of the real space projectors (new method)

 maximal supplied QI-value         = 24.76
 optimisation between [QCUT,QGAM] = [ 11.88, 24.01] = [ 39.54,161.47] Ry
 Optimized for a Real-space Cutoff    1.18 Angstroem

   l    n(q)    QCUT    max X(q) W(low)/X(q) W(high)/X(q)  e(spline)
   0      8    11.883    20.381    0.86E-04    0.11E-03    0.31E-06
   0      8    11.883    15.268    0.94E-04    0.12E-03    0.33E-06
   1      8    11.883     5.964    0.19E-03    0.18E-04    0.33E-06
   1      8    11.883     5.382    0.17E-03    0.20E-04    0.29E-06
  PAW_PBE B 06Sep2000                   :
  PAW_PBE N 08Apr2002                   :
  PAW_PBE C 08Apr2002                   :
  PAW_PBE F 08Apr2002                   :
  PAW_PBE O 08Apr2002                   :

 POSCAR: B N C F O
  positions in direct lattice
  velocities in cartesian coordinates

 METAGGA = SCAN     LMAXTAU =  6    LMIXTAU =  F

 ion  position               nearest neighbor table
   1  0.167  0.083  0.500-  20 1.45  17 1.45  21 1.45
   2  0.167  0.333  0.500-  18 1.45  17 1.45  22 1.45
   3  0.167  0.583  0.500-  19 1.45  18 1.45  23 1.45
   4  0.167  0.833  0.500-  19 1.45  20 1.45  24 1.45
   5  0.417  0.083  0.500-  24 1.45  25 1.45  21 1.45
   6  0.417  0.333  0.500-  21 1.45  26 1.45  22 1.45
   7  0.417  0.583  0.500-  23 1.45  22 1.45  27 1.45
   8  0.417  0.833  0.500-  24 1.45  28 1.45  23 1.45
   9  0.667  0.083  0.500-  29 1.45  25 1.45  28 1.45
  10  0.667  0.333  0.500-  30 1.45  25 1.45  26 1.45
  11  0.667  0.583  0.500-  31 1.45  26 1.45  27 1.45
  12  0.667  0.833  0.500-  32 1.45  28 1.45  27 1.45
  13  0.917  0.083  0.500-  29 1.45  17 1.45  32 1.45
  14  0.917  0.333  0.500-  29 1.45  18 1.45  30 1.45
  15  0.917  0.583  0.500-  19 1.45  30 1.45  31 1.45
  16  0.917  0.833  0.500-  20 1.45  32 1.45  31 1.45
  17  0.083  0.167  0.500-   2 1.45   1 1.45  13 1.45
  18  0.083  0.417  0.500-   2 1.45   3 1.45  14 1.45
  19  0.083  0.667  0.500-  15 1.45   3 1.45   4 1.45
  20  0.083  0.917  0.500-  16 1.45   1 1.45   4 1.45
  21  0.333  0.167  0.500-   6 1.45   5 1.45   1 1.45
  22  0.333  0.417  0.500-   7 1.45   6 1.45   2 1.45
  23  0.333  0.667  0.500-   7 1.45   8 1.45   3 1.45
  24  0.333  0.917  0.500-   8 1.45   5 1.45   4 1.45
  25  0.583  0.167  0.500-  10 1.45   5 1.45   9 1.45
  26  0.583  0.417  0.500-  11 1.45   6 1.45  10 1.45
  27  0.583  0.667  0.500-   7 1.45  11 1.45  12 1.45
  28  0.583  0.917  0.500-  12 1.45   8 1.45   9 1.45
  29  0.833  0.167  0.500-   9 1.45  13 1.45  14 1.45
  30  0.833  0.417  0.500-  10 1.45  15 1.45  14 1.45
  31  0.833  0.667  0.500-  11 1.45  16 1.45  15 1.45
  32  0.833  0.917  0.500-  12 1.45  16 1.45  13 1.45
  33  0.559  0.470  0.673-  36 1.34  37 1.34  38 1.34  34 1.54
  34  0.531  0.474  0.630-  40 1.36  39 1.36  33 1.54  35 1.54
  35  0.514  0.612  0.618-  42 1.25  41 1.25  34 1.54
  36  0.691  0.595  0.683-  33 1.34
  37  0.566  0.344  0.682-  33 1.34
  38  0.444  0.468  0.693-  33 1.34
  39  0.651  0.476  0.612-  34 1.36
  40  0.401  0.340  0.621-  34 1.36
  41  0.635  0.736  0.611-  35 1.25
  42  0.382  0.592  0.615-  35 1.25

IMPORTANT INFORMATION: All symmetrisations will be switched off!
NOSYMM: (Re-)initialisation of all symmetry stuff for point group C_1.

 KPOINTS: K-Point Grid

Automatic generation of k-mesh.
Space group operators:
 irot       det(A)        alpha          n_x          n_y          n_z        tau_x        tau_y        tau_z
    1     1.000000     0.000000     1.000000     0.000000     0.000000     0.000000     0.000000     0.000000

 Subroutine IBZKPT returns following result:

 Found     24 irreducible k-points:

 Following reciprocal coordinates:
            Coordinates               Weight
  0.125000  0.125000  0.000000     16.000000
  0.250000 -0.125000  0.000000     16.000000
  0.125000 -0.250000  0.000000     16.000000
  0.375000  0.125000  0.000000     16.000000
  0.500000 -0.375000  0.000000     16.000000
  0.125000  0.500000  0.000000     16.000000
 -0.125000 -0.375000  0.000000     16.000000
  0.375000  0.500000  0.000000     16.000000
  0.500000 -0.125000  0.000000     16.000000
 -0.375000  0.125000  0.000000     16.000000
 -0.250000  0.375000  0.000000     16.000000
  0.125000  0.250000  0.000000     16.000000
 -0.125000  0.375000  0.000000     16.000000
 -0.375000  0.250000  0.000000     16.000000
 -0.250000 -0.125000  0.000000     16.000000
 -0.125000  0.125000  0.000000     16.000000
  0.000000  0.125000  0.000000     16.000000
  0.125000  0.000000  0.000000     16.000000
  0.375000  0.375000  0.000000     16.000000
 -0.250000 -0.375000  0.000000     16.000000
  0.375000  0.250000  0.000000     16.000000
 -0.375000  0.375000  0.000000     16.000000
  0.000000  0.375000  0.000000     16.000000
  0.375000  0.000000  0.000000     16.000000

 Following cartesian coordinates:
            Coordinates               Weight
  0.024879  0.000000  0.000000     16.000000
  0.012439 -0.021546  0.000000     16.000000
 -0.012439 -0.021546  0.000000     16.000000
  0.049758 -0.014364  0.000000     16.000000
  0.012439 -0.050273  0.000000     16.000000
  0.062197  0.021546  0.000000     16.000000
 -0.049758 -0.014364  0.000000     16.000000
  0.087076  0.007182  0.000000     16.000000
  0.037318 -0.035909  0.000000     16.000000
 -0.024879  0.028727  0.000000     16.000000
  0.012439  0.035909  0.000000     16.000000
  0.037318  0.007182  0.000000     16.000000
  0.024879  0.028727  0.000000     16.000000
 -0.012439  0.035909  0.000000     16.000000
 -0.037318  0.007182  0.000000     16.000000
  0.000000  0.014364  0.000000     16.000000
  0.012439  0.007182  0.000000     16.000000
  0.012439 -0.007182  0.000000     16.000000
  0.074636  0.000000  0.000000     16.000000
 -0.062197 -0.007182  0.000000     16.000000
  0.062197 -0.007182  0.000000     16.000000
  0.000000  0.043091  0.000000     16.000000
  0.037318  0.021546  0.000000     16.000000
  0.037318 -0.021546  0.000000     16.000000

 SYSTEM =  SiC
 POSCAR =  B N C F O

 Startparameter for this run:
   NWRITE =      2    write-flag & timer
   PREC   = accura    normal or accurate (medium, high low for compatibility)
   ISTART =      1    job   : 0-new  1-cont  2-samecut
   ICHARG =      0    charge: 1-file 2-atom 10-const
   ISPIN  =      2    spin polarized calculation?
   LNONCOLLINEAR =      F non collinear calculations
   LSORBIT =      F    spin-orbit coupling
   INIWAV =      1    electr: 0-lowe 1-rand  2-diag
   LASPH  =      T    aspherical Exc in radial PAW
   METAGGA=      F    non-selfconsistent MetaGGA calc.

 Electronic Relaxation 1
   ENCUT  =  550.0 eV  40.42 Ry    6.36 a.u.  19.22 19.22 67.15*2*pi/ulx,y,z
   ENINI  =  550.0     initial cutoff
   ENAUG  =  644.9 eV  augmentation charge cutoff
   NELM   =    100;   NELMIN=  2; NELMDL=  0     # of ELM steps
   EDIFF  = 0.1E-04   stopping-criterion for ELM
   LREAL  =      T    real-space projection
   NLSPLINE    = F    spline interpolate recip. space projectors
   LCOMPAT=      F    compatible to vasp.4.4
   GGA_COMPAT  = T    GGA compatible to vasp.4.4-vasp.4.6
   LMAXPAW     = -100 max onsite density
   LMAXMIX     =    2 max onsite mixed and CHGCAR
   VOSKOWN=      0    Vosko Wilk Nusair interpolation
   ROPT   =   -0.00025  -0.00025  -0.00025  -0.00025
   ROPT   =   -0.00025
 Ionic relaxation
   EDIFFG = -.2E-01   stopping-criterion for IOM
   NSW    =    500    number of steps for IOM
   NBLOCK =      1;   KBLOCK =    500    inner block; outer block
   IBRION =      2    ionic relax: 0-MD 1-quasi-New 2-CG
   NFREE  =      1    steps in history (QN), initial steepest desc. (CG)
   ISIF   =      2    stress and relaxation
   IWAVPR =     11    prediction:  0-non 1-charg 2-wave 3-comb
   ISYM   =      0    0-nonsym 1-usesym 2-fastsym
   LCORR  =      T    Harris-Foulkes like correction to forces

   POTIM  = 0.5000    time-step for ionic-motion
   TEIN   =    0.0    initial temperature
   TEBEG  =    0.0;   TEEND  =   0.0 temperature during run
   SMASS  =  -3.00    Nose mass-parameter (am)
   estimated Nose-frequenzy (Omega)   =  0.10E-29 period in steps =****** mass=  -0.231E-26a.u.
   SCALEE = 1.0000    scale energy and forces
   NPACO  =    256;   APACO  = 16.0  distance and # of slots for P.C.
   PSTRESS=    0.0 pullay stress

  Mass of Ions in am
   POMASS =  10.81 14.00 12.01 19.00 16.00
  Ionic Valenz
   ZVAL   =   3.00  5.00  4.00  7.00  6.00
  Atomic Wigner-Seitz radii
  virtual crystal weights
   VCA    =   1.00  1.00  1.00  1.00  1.00
   NELECT =     186.4000    total number of electrons
   NUPDOWN=      -1.0000    fix difference up-down

 DOS related values:
   EMIN   =  10.00;   EMAX   =-10.00  energy-range for DOS
   EFERMI =   0.00
   ISMEAR =     0;   SIGMA  =   0.05  broadening in eV -4-tet -1-fermi 0-gaus

 Electronic relaxation 2 (details)
   IALGO  =     68    algorithm
   LDIAG  =      T    sub-space diagonalisation (order eigenvalues)
   LSUBROT=      F    optimize rotation matrix (better conditioning)
   TURBO    =      0    0=normal 1=particle mesh
   IRESTART =      0    0=no restart 2=restart with 2 vectors
   NREBOOT  =      0    no. of reboots
   NMIN     =      0    reboot dimension
   EREF     =   0.00    reference energy to select bands
[...]

[...]

 spin component 2

[...]

 k-point    24 :       0.3750    0.0000    0.0000
  band No.  band energies     occupation
      1     -35.9182      1.00000
      2     -34.5960      1.00000
      3     -33.5894      1.00000
      4     -33.5279      1.00000
      5     -33.0725      1.00000
      6     -29.8147      1.00000
      7     -27.3560      1.00000
      8     -25.4466      1.00000
      9     -25.1425      1.00000
     10     -24.7009      1.00000
     11     -24.7004      1.00000
     12     -23.8844      1.00000
     13     -23.8840      1.00000
     14     -23.5294      1.00000
     15     -23.3951      1.00000
     16     -23.3948      1.00000
     17     -22.9412      1.00000
     18     -22.5775      1.00000
     19     -22.5771      1.00000
     20     -22.5340      1.00000
     21     -22.5339      1.00000
     22     -22.0819      1.00000
     23     -22.0817      1.00000
     24     -21.3489      1.00000
     25     -18.6392      1.00000
     26     -16.8868      1.00000
     27     -16.3025      1.00000
     28     -16.2497      1.00000
     29     -15.8655      1.00000
     30     -15.8653      1.00000
     31     -15.6346      1.00000
     32     -15.4240      1.00000
     33     -15.4029      1.00000
     34     -15.4026      1.00000
     35     -15.3724      1.00000
     36     -15.3721      1.00000
     37     -15.1156      1.00000
     38     -14.3261      1.00000
     39     -14.0088      1.00000
     40     -14.0086      1.00000
     41     -13.7788      1.00000
     42     -13.7269      1.00000
     43     -13.7267      1.00000
     44     -13.3523      1.00000
     45     -13.3521      1.00000
     46     -12.6816      1.00000
     47     -12.6165      1.00000
     48     -12.5712      1.00000
     49     -12.3649      1.00000
     50     -12.3479      1.00000
     51     -12.3477      1.00000
     52     -12.0975      1.00000
     53     -11.9366      1.00000
     54     -11.9243      1.00000
     55     -11.7610      1.00000
     56     -11.7606      1.00000
     57     -11.7119      1.00000
     58     -11.7012      1.00000
     59     -11.7011      1.00000
     60     -11.5336      1.00000
[...]
    130       1.5337      0.00000
    131       1.5387      0.00000
    132       1.5811      0.00000
    133       1.7484      0.00000
    134       1.7931      0.00000
    135       1.9391      0.00000
    136       1.9844      0.00000
    137       2.0245      0.00000
    138       2.0461      0.00000
    139       2.1242      0.00000
    140       2.2249      0.00000
    141       2.2573      0.00000
    142       2.3130      0.00000
    143       2.4686      0.00000
    144       2.5086      0.00000

[...]

 soft charge-density along one line, spin component           2
         0         1         2         3         4         5         6         7         8         9
 total charge-density along one line

------------------------ aborting loop because EDIFF is reached ----------------------------------------

[...]

  FORCE on cell =-STRESS in cart. coord.  units (eV):
  Direction    XX          YY          ZZ          XY          YZ          ZX
  Alpha Z    57.55240    57.55240    57.55240
  Ewald   65329.09160 65425.27954-68551.73357    -4.32152  -352.74248  -154.25592
  Hartree 65790.81515 66011.04151-61479.12818    74.26615  -338.06225  -108.64906
  E(xc)    -832.33822  -831.79328  -837.86007     0.27662    -0.47888    -0.08512
  Local  ************************127563.70263   -91.02916   705.32268   258.55055
  n-local  -488.32353  -488.23516  -480.28130     0.26050     1.65856     0.84753
  augment   119.01138   122.45219   129.34073     1.82607    -2.24536     0.19590
  Kinetic  3271.33211  3304.71677  3598.11770    18.96485   -13.25977     3.70774
  Fock        0.00000     0.00000     0.00000     0.00000     0.00000     0.00000
  Total     -13.29680   -12.91179    -0.28967     0.24352     0.19250     0.31162
  in kB      -6.93768    -6.73680    -0.15113     0.12706     0.10044     0.16259

 VOLUME and BASIS-vectors are now :
  energy-cutoff  :      550.00
  volume of cell :     3070.74
      direct lattice vectors                 reciprocal lattice vectors
     5.024366704 -8.702497373  0.000000000     0.099515029 -0.057454772  0.000000000
     5.024366704  8.702497373  0.000000000     0.099515029  0.057454772  0.000000000
     0.000000000  0.000000000 35.114664386     0.000000000  0.000000000  0.028478131

  length of vectors
    10.048767154 10.048767154 35.114664386     0.114909929  0.114909929  0.028478131

 FORCES acting on ions
    electron-ion (+dipol)            ewald-force                    non-local-force                 convergence-correction
   0.820E+01 0.157E+01 0.124E+03   -.821E+01 -.153E+01 -.123E+03   0.508E-02 -.409E-03 -.778E-03   -.472E-04 0.955E-04 0.939E-03
   0.130E+02 -.632E+01 0.130E+03   -.129E+02 0.636E+01 -.129E+03   0.110E-01 -.619E-02 0.171E-02   0.291E-03 0.352E-04 0.117E-02
   0.392E+01 -.875E+01 0.126E+03   -.381E+01 0.862E+01 -.124E+03   0.470E-02 -.568E-02 0.149E-03   0.254E-03 -.249E-03 0.124E-02
   -.758E+00 -.573E+00 0.119E+03   0.734E+00 0.499E+00 -.118E+03   -.632E-04 -.584E-03 -.934E-03   -.591E-04 -.136E-03 0.997E-03
   0.755E+01 0.545E+01 0.125E+03   -.757E+01 -.550E+01 -.125E+03   0.315E-02 0.338E-02 -.703E-03   -.597E-04 -.119E-03 0.909E-03
   0.135E+02 0.487E+01 0.148E+03   -.134E+02 -.476E+01 -.147E+03   0.106E-01 0.556E-02 -.807E-03   0.266E-03 0.316E-03 0.113E-02
   0.385E+01 -.121E+02 0.152E+03   -.375E+01 0.121E+02 -.150E+03   0.400E-02 -.112E-01 -.254E-02   0.275E-03 0.278E-04 0.175E-02
   -.194E+01 -.115E+02 0.128E+03   0.189E+01 0.113E+02 -.127E+03   -.270E-02 -.695E-02 0.116E-02   -.904E-04 -.450E-03 0.138E-02
   -.322E+01 0.567E+00 0.122E+03   0.312E+01 -.691E+00 -.121E+03   -.482E-02 0.698E-03 0.147E-03   -.230E-03 -.274E-03 0.107E-02
   0.127E+01 0.151E+02 0.136E+03   -.123E+01 -.150E+02 -.135E+03   0.108E-03 0.120E-01 0.207E-02   0.705E-04 0.142E-03 0.922E-03
   -.939E+01 0.662E+01 0.154E+03   0.944E+01 -.646E+01 -.152E+03   -.873E-02 0.862E-02 0.478E-04   0.507E-04 0.455E-03 0.144E-02
   -.138E+02 -.780E+01 0.139E+03   0.137E+02 0.779E+01 -.137E+03   -.128E-01 -.691E-02 0.272E-02   -.333E-03 -.679E-04 0.165E-02
   -.308E+01 -.214E+01 0.120E+03   0.296E+01 0.213E+01 -.119E+03   -.162E-02 -.426E-02 -.129E-04   -.235E-03 -.321E-04 0.108E-02
   0.124E+01 0.312E+01 0.120E+03   -.121E+01 -.316E+01 -.119E+03   0.301E-02 0.176E-02 -.229E-03   0.666E-04 -.922E-04 0.954E-03
   -.805E+01 0.862E+01 0.128E+03   0.805E+01 -.857E+01 -.126E+03   -.268E-02 0.547E-02 0.423E-03   0.483E-04 0.130E-03 0.101E-02
   -.123E+02 0.322E+01 0.127E+03   0.122E+02 -.310E+01 -.126E+03   -.624E-02 0.777E-03 0.126E-02   -.269E-03 0.218E-03 0.119E-02
   0.128E+02 -.367E+01 0.205E+03   -.128E+02 0.373E+01 -.204E+03   0.873E-02 0.334E-02 0.713E-02   -.691E-05 0.117E-03 0.167E-02
   0.119E+02 -.890E+01 0.207E+03   -.117E+02 0.882E+01 -.205E+03   0.209E-02 -.851E-02 0.437E-02   0.440E-03 -.192E-03 0.186E-02
   -.450E+01 -.110E+01 0.202E+03   0.456E+01 0.979E+00 -.200E+03   -.711E-02 -.401E-02 0.797E-02   0.138E-03 -.208E-03 0.174E-02
   -.336E+01 0.395E+01 0.200E+03   0.324E+01 -.389E+01 -.198E+03   -.148E-02 0.565E-02 0.945E-02   -.277E-03 0.115E-03 0.162E-02
   0.223E+02 0.947E+01 0.220E+03   -.223E+02 -.941E+01 -.219E+03   0.211E-01 0.108E-01 0.652E-02   0.950E-04 0.188E-03 0.149E-02
   0.231E+02 -.101E+02 0.245E+03   -.228E+02 0.103E+02 -.243E+03   0.245E-01 -.660E-02 0.399E-03   0.662E-03 0.363E-03 0.228E-02
   0.408E+01 -.253E+02 0.226E+03   -.396E+01 0.251E+02 -.224E+03   0.136E-02 -.304E-01 0.487E-02   0.321E-03 -.564E-03 0.260E-02
   0.400E+01 -.494E+01 0.201E+03   -.405E+01 0.470E+01 -.200E+03   0.588E-02 -.568E-02 0.898E-02   -.157E-03 -.517E-03 0.173E-02
   0.571E+01 0.148E+02 0.211E+03   -.576E+01 -.148E+02 -.210E+03   0.850E-02 0.564E-02 0.537E-02   -.121E-03 -.218E-03 0.149E-02
   0.459E+01 0.198E+02 0.252E+03   -.446E+01 -.196E+02 -.250E+03   0.530E-02 0.209E-01 -.710E-02   0.331E-03 0.646E-03 0.184E-02
   -.145E+02 -.987E+01 0.256E+03   0.146E+02 0.101E+02 -.254E+03   -.212E-01 -.902E-02 -.173E-01   0.855E-05 0.364E-03 0.299E-02
   -.127E+02 -.149E+02 0.215E+03   0.125E+02 0.146E+02 -.213E+03   -.323E-02 -.143E-01 -.252E-02   -.493E-03 -.632E-03 0.235E-02
   -.335E+01 0.112E+01 0.198E+03   0.322E+01 -.122E+01 -.197E+03   -.647E-03 0.390E-03 0.479E-02   -.270E-03 -.258E-03 0.167E-02
   -.522E+01 0.190E+02 0.212E+03   0.527E+01 -.189E+02 -.211E+03   -.711E-02 0.767E-02 0.558E-03   0.139E-03 0.940E-04 0.152E-02
   -.235E+02 0.141E+02 0.228E+03   0.235E+02 -.139E+02 -.226E+03   -.240E-01 0.133E-01 -.215E-02   -.149E-03 0.589E-03 0.200E-02
   -.214E+02 -.339E+01 0.214E+03   0.211E+02 0.346E+01 -.212E+03   -.133E-01 0.363E-02 -.354E-02   -.663E-03 0.121E-03 0.221E-02
   -.506E+00 0.164E+02 -.437E+03   -.269E+00 -.146E+02 0.429E+03   0.824E+00 -.156E+01 0.959E+01   0.799E-03 0.213E-02 -.169E-02
   -.900E+01 -.361E+02 -.310E+03   0.142E+02 0.447E+02 0.318E+03   -.493E+01 -.804E+01 -.475E+01   0.199E-02 0.443E-02 -.593E-03
   -.256E+02 -.745E+02 -.290E+03   0.245E+02 0.724E+02 0.293E+03   0.155E+01 0.322E+01 -.656E+00   0.245E-02 0.583E-02 -.623E-03
   -.511E+03 0.698E+02 -.955E+03   0.569E+03 -.729E+02 0.973E+03   -.560E+02 0.333E+01 -.164E+02   0.265E-03 0.316E-02 -.340E-02
   0.230E+03 0.490E+03 -.920E+03   -.256E+03 -.541E+03 0.937E+03   0.257E+02 0.504E+02 -.142E+02   0.582E-03 0.144E-02 -.882E-03
   0.233E+03 -.350E+03 -.109E+04   -.260E+03 0.393E+03 0.112E+04   0.256E+02 -.422E+02 -.310E+02   0.133E-02 0.248E-02 -.374E-02
   -.204E+03 0.405E+03 -.275E+03   0.230E+03 -.446E+03 0.253E+03   -.248E+02 0.413E+02 0.272E+02   0.218E-02 0.583E-02 0.204E-02
   0.529E+03 0.311E+02 -.412E+03   -.584E+03 -.312E+02 0.404E+03   0.539E+02 0.120E+01 0.135E+02   0.339E-02 0.548E-02 0.120E-02
   -.416E+03 -.136E+03 -.387E+03   0.469E+03 0.139E+03 0.382E+03   -.512E+02 -.242E+01 0.958E+01   -.492E-02 0.187E-02 0.206E-02
   0.176E+03 -.413E+03 -.430E+03   -.207E+03 0.457E+03 0.429E+03   0.310E+02 -.418E+02 0.471E+01   0.468E-02 -.234E-02 0.170E-02
   -.164E+01 -.348E+01 0.223E+01   -.284E-13 -.114E-12 -.136E-11   0.164E+01 0.342E+01 -.230E+01   0.127E-01 0.303E-01 0.460E-01

 POSITION                                       TOTAL-FORCE (eV/Angst)
      1.25594     -0.72496     17.55944        -0.000267     -0.000146      0.000951
      2.51189      1.45078     17.56022         0.000161      0.000081      0.000839
      3.76811      3.62639     17.55974         0.000017      0.000016      0.001184
      5.02432      5.80192     17.55921        -0.000061      0.000079      0.001273
      2.51209     -2.90068     17.55960        -0.000357      0.000096      0.001027
      3.76799     -0.72510     17.55990         0.000019      0.000230      0.000132
      5.02421      1.45095     17.55974        -0.000299      0.000166      0.000831
      6.28046      3.62641     17.56018        -0.000046      0.000054      0.001324
      3.76833     -5.07625     17.56031        -0.000192     -0.000356      0.001255
      5.02431     -2.90085     17.56078         0.000127      0.000233      0.000808
      6.28062     -0.72516     17.56070        -0.000083     -0.000157      0.000673
      7.53674      1.45082     17.56154         0.000241      0.000195      0.001407
      5.02433     -7.25176     17.56015        -0.000430      0.000171      0.001284
      6.28034     -5.07628     17.55992        -0.000121      0.000031      0.001190
      7.53654     -2.90071     17.56013        -0.000105      0.000109      0.000912
      8.79270     -0.72497     17.56046         0.000021      0.000435      0.000916
      1.25603      0.72546     17.55956        -0.000010      0.000082      0.001369
      2.51213      2.90107     17.55968        -0.000223      0.000080      0.001302
      3.76822      5.07670     17.55918        -0.000065      0.000158      0.001496
      5.02431      7.25233     17.55918         0.000020     -0.000071      0.001335
      2.51211     -1.45020     17.55947         0.000013      0.000079      0.000574
      3.76829      0.72543     17.56113        -0.000059     -0.000046     -0.000295
      5.02431      2.90110     17.55983        -0.000103     -0.000037      0.000812
      6.28040      5.07671     17.55913         0.000082      0.000039      0.001370
      3.76824     -3.62581     17.55998        -0.000055      0.000206      0.001229
      5.02433     -1.45008     17.56202        -0.000156      0.000046     -0.000040
      6.28026      0.72545     17.56303        -0.000194      0.000028      0.000571
      7.53648      2.90105     17.56075        -0.000053      0.000189      0.001173
      5.02432     -5.80143     17.55974        -0.000046      0.000164      0.001339
      6.28039     -3.62580     17.56024        -0.000183      0.000118      0.001052
      7.53650     -1.45018     17.56067        -0.000162      0.000157      0.000486
      8.79253      0.72547     17.56079        -0.000003      0.000098      0.001072
      5.17058     -0.77025     23.63779        -0.005501     -0.005448     -0.002509
      5.04684     -0.49758     22.12855        -0.004263     -0.006452     -0.007892
      5.65692      0.84286     21.68607         0.009269      0.011471     -0.008249
      6.46016     -0.84022     23.99902        -0.004700      0.004657     -0.004792
      4.57614     -1.93114     23.94971         0.002368     -0.006367      0.013839
      4.58028      0.21388     24.33401        -0.001925     -0.004882     -0.006868
      5.66253     -1.52228     21.47786        -0.006223      0.000621      0.005716
      3.72363     -0.53057     21.82036         0.006263     -0.001418      0.000737
      6.88472      0.88727     21.46385        -0.003601      0.003337     -0.019215
      4.90610      1.83406     21.58055         0.010885      0.001954     -0.001617
    total drift:                                0.010408     -0.029829     -0.019545

  FREE ENERGIE OF THE ION-ELECTRON SYSTEM (eV)
  free  energy   TOTEN  =      -382.82776157 eV

  energy  without entropy=     -382.80383196  energy(sigma->0) =     -382.81579676

 d Force = 0.6922313E-04[ 0.433E-04, 0.952E-04]  d Energy = 0.4859730E-03-0.417E-03
 d Force = 0.2729807E+00[ 0.273E+00, 0.273E+00]  d Ewald  = 0.2729807E+00-0.123E-07

 Conjugate gradient step on ions:
 trial-energy change:   -0.000486  1 .order   -0.000069   -0.000095   -0.000043
  (g-gl).g = 0.162E-03      g.g   = 0.172E-03  gl.gl    = 0.586E-03
 g(Force)  = 0.172E-03   g(Stress)= 0.000E+00 ortho     = 0.358E-05
 gamma     =   0.27732
 trial     =   0.55069
 opt step  =   0.55987  (harmonic =   1.00968) maximal distance =0.00051637
 next E    =  -382.827762   (d E  =  -0.00049)

 reached required accuracy - stopping structural energy minimisation
 writing wavefunctions

 total charge

[...]

 magnetization (x)

# of ion       s       p       d       tot
    1        0.000   0.001   0.000   0.001
    2        0.000   0.001   0.000   0.001
    3        0.000   0.001   0.000   0.001
    4        0.000   0.001   0.000   0.001
    5        0.000   0.001   0.000   0.001
    6        0.000   0.001   0.000   0.001
    7        0.000   0.001   0.000   0.001
    8        0.000   0.001   0.000   0.001
    9        0.000   0.001   0.000   0.001
   10        0.000   0.001   0.000   0.001
   11        0.000   0.001   0.000   0.001
   12        0.000   0.001   0.000   0.001
   13        0.000   0.001   0.000   0.001
   14        0.000   0.001   0.000   0.001
   15        0.000   0.001   0.000   0.001
   16        0.000   0.001   0.000   0.001
   17       -0.000  -0.007   0.000  -0.007
   18       -0.000  -0.007   0.000  -0.007
   19       -0.000  -0.007   0.000  -0.007
   20       -0.000  -0.007   0.000  -0.007
   21       -0.000  -0.007   0.000  -0.007
   22       -0.000  -0.007   0.000  -0.007
   23       -0.000  -0.007   0.000  -0.007
   24       -0.000  -0.007   0.000  -0.007
   25       -0.000  -0.007   0.000  -0.007
   26       -0.000  -0.007   0.000  -0.007
   27       -0.000  -0.007   0.000  -0.007
   28       -0.000  -0.007   0.000  -0.007
   29       -0.000  -0.007   0.000  -0.007
   30       -0.000  -0.007   0.000  -0.007
   31       -0.000  -0.007   0.000  -0.007
   32       -0.000  -0.007   0.000  -0.007
   33        0.000   0.000   0.000   0.000
   34        0.001   0.003   0.000   0.003
   35        0.003   0.017   0.000   0.021
   36       -0.000  -0.001   0.000  -0.001
   37        0.000   0.000   0.000   0.000
   38       -0.000  -0.000   0.000  -0.000
   39       -0.000  -0.005   0.000  -0.005
   40       -0.000  -0.006   0.000  -0.006
   41       -0.003  -0.237   0.000  -0.240
   42       -0.003  -0.235   0.000  -0.238
tot         -0.003  -0.560   0.000  -0.563