 vasp.5.4.4.18Apr17-6-g9f103f2a35 (build May 01 2020 14:57:12) complex

 executed on             LinuxIFC date 2021.01.08  06:36:17

 INCAR:
 POTCAR:    PAW_PBE B 06Sep2000
 POTCAR:    PAW_PBE N 08Apr2002

 POTCAR:    PAW_PBE B 06Sep2000
   VRHFIN =B: s2p1

   TITEL  = PAW_PBE B 06Sep2000
   POMASS =   10.811; ZVAL   =    3.000    mass and valenz
   ENMAX  =  318.614; ENMIN  =  238.960 eV

 POTCAR:    PAW_PBE N 08Apr2002
   VRHFIN =N: s2p3

   TITEL  = PAW_PBE N 08Apr2002
   POMASS =   14.001; ZVAL   =    5.000    mass and valenz
   ENMAX  =  400.000; ENMIN  =  300.000 eV

 Optimization of the real space projectors (new method)

 maximal supplied QI-value         = 22.11
 optimisation between [QCUT,QGAM] = [ 11.94, 23.88] = [ 39.92,159.67] Ry
 Optimized for a Real-space Cutoff    1.18 Angstroem

   l    n(q)    QCUT    max X(q) W(low)/X(q) W(high)/X(q)  e(spline)
   0      8    11.939    53.033    0.11E-03    0.34E-03    0.60E-07
   0      8    11.939    34.740    0.11E-03    0.34E-03    0.59E-07
   1      8    11.939    30.949    0.22E-03    0.20E-03    0.17E-06
   1      8    11.939    19.518    0.20E-03    0.18E-03    0.16E-06
 Optimization of the real space projectors (new method)

 maximal supplied QI-value         = 25.13
 optimisation between [QCUT,QGAM] = [ 11.81, 23.88] = [ 39.08,159.64] Ry
 Optimized for a Real-space Cutoff    1.41 Angstroem

   l    n(q)    QCUT    max X(q) W(low)/X(q) W(high)/X(q)  e(spline)
   0     10    11.813    79.467    0.48E-04    0.30E-04    0.67E-06
   0     10    11.813    66.151    0.47E-04    0.30E-04    0.67E-06
   1     10    11.813    20.169    0.11E-03    0.17E-03    0.11E-05
   1     10    11.813    14.454    0.11E-03    0.17E-03    0.11E-05
  PAW_PBE B 06Sep2000                   :
  PAW_PBE N 08Apr2002                   :

 POSCAR: B N
  positions in direct lattice
  velocities in cartesian coordinates

 METAGGA = SCAN     LMAXTAU =  6    LMIXTAU =  F

 ion  position               nearest neighbor table
   1  0.167  0.083  0.500-  21 1.45  17 1.45  20 1.45
   2  0.167  0.335  0.500-  18 1.44  22 1.45  17 1.46
   3  0.167  0.583  0.500-  18 1.44  23 1.45  19 1.46
   4  0.167  0.833  0.500-  24 1.45  19 1.45  20 1.45
   5  0.417  0.083  0.500-  25 1.45  24 1.46  21 1.46
   6  0.417  0.335  0.500-  32 1.44  22 1.45  21 1.46
   7  0.417  0.833  0.500-  27 1.44  23 1.45  24 1.46
   8  0.667  0.083  0.500-  27 1.45  28 1.45  25 1.45
   9  0.667  0.333  0.500-  32 1.45  25 1.45  29 1.45
  10  0.665  0.583  0.500-  32 1.44  26 1.45  30 1.46
  11  0.665  0.833  0.500-  27 1.44  26 1.45  31 1.46
  12  0.917  0.083  0.500-  28 1.45  17 1.46  31 1.46
  13  0.917  0.333  0.500-  18 1.45  28 1.45  29 1.45
  14  0.917  0.583  0.500-  29 1.45  19 1.46  30 1.46
  15  0.917  0.833  0.500-  30 1.45  31 1.45  20 1.45
  16  0.417  0.583  0.500-  23 1.43  26 1.43  22 1.43
  17  0.084  0.168  0.500-   1 1.45   2 1.46  12 1.46
  18  0.083  0.417  0.500-   3 1.44   2 1.44  13 1.45
  19  0.084  0.667  0.500-   4 1.45   3 1.46  14 1.46
  20  0.083  0.917  0.500-   1 1.45  15 1.45   4 1.45
  21  0.333  0.168  0.500-   1 1.45   6 1.46   5 1.46
  22  0.334  0.419  0.500-  16 1.43   6 1.45   2 1.45
  23  0.334  0.666  0.500-  16 1.43   3 1.45   7 1.45
  24  0.333  0.916  0.500-   4 1.45   7 1.46   5 1.46
  25  0.583  0.167  0.500-   5 1.45   9 1.45   8 1.45
  26  0.581  0.666  0.500-  16 1.43  10 1.45  11 1.45
  27  0.583  0.917  0.500-   7 1.44  11 1.44   8 1.45
  28  0.833  0.167  0.500-  12 1.45   8 1.45  13 1.45
  29  0.833  0.417  0.500-  14 1.45   9 1.45  13 1.45
  30  0.832  0.667  0.500-  15 1.45  10 1.46  14 1.46
  31  0.832  0.916  0.500-  15 1.45  11 1.46  12 1.46
  32  0.583  0.417  0.500-   6 1.44  10 1.44   9 1.45

  LATTYP: Found a hexagonal cell.
 ALAT       =    10.0487671536
 C/A-ratio  =     3.4944251219

  Lattice vectors:

 A1 = (   5.0243667045,  -8.7024973730,   0.0000000000)
 A2 = (   5.0243667045,   8.7024973730,   0.0000000000)
 A3 = (   0.0000000000,   0.0000000000,  35.1146643856)

Analysis of symmetry for initial positions (statically):
 Subroutine PRICEL returns:
 Original cell was already a primitive cell.

 Routine SETGRP: Setting up the symmetry group for a
 hexagonal supercell.

 Subroutine GETGRP returns: Found  4 space group operations
 (whereof  4 operations were pure point group operations)
 out of a pool of 24 trial point group operations.

The static configuration has the point symmetry C_2v.

Analysis of symmetry for dynamics (positions and initial velocities):
 Subroutine PRICEL returns:
 Original cell was already a primitive cell.

[...]

The dynamic configuration has the point symmetry C_2v.

Analysis of constrained symmetry for selective dynamics:
 Subroutine PRICEL returns:
 Original cell was already a primitive cell.

[...]

The constrained configuration has the point symmetry C_2v.

Analysis of structural, dynamic, and magnetic symmetry:
 Subroutine PRICEL returns:
 Original cell was already a primitive cell.

 Routine SETGRP: Setting up the symmetry group for a
 hexagonal supercell.

 Subroutine GETGRP returns: Found  4 space group operations
 (whereof  4 operations were pure point group operations)
 out of a pool of 24 trial point group operations.

The magnetic configuration has the point symmetry C_2v.

 Subroutine INISYM returns: Found  4 space group operations
 (whereof  4 operations are pure point group operations),
 and found     1 'primitive' translations

 KPOINTS: K-Point Grid

Automatic generation of k-mesh.
Space group operators:
 irot       det(A)        alpha          n_x          n_y          n_z        tau_x        tau_y        tau_z
    1     1.000000     0.000000     1.000000     0.000000     0.000000     0.000000     0.000000     0.000000
    2    -1.000000   180.000000     0.000000     0.000000     1.000000     0.000000     0.000000     0.000000
    3     1.000000   180.000000     0.000000     1.000000     0.000000     0.000000     0.000000     0.000000
    4    -1.000000   180.000000     1.000000     0.000000     0.000000     0.000000     0.000000     0.000000

 Subroutine IBZKPT returns following result:

 Found     14 irreducible k-points:

 Following reciprocal coordinates:
            Coordinates               Weight
  0.125000  0.125000  0.000000     16.000000
  0.250000 -0.125000  0.000000     32.000000
  0.375000  0.125000  0.000000     32.000000
  0.500000 -0.375000  0.000000     32.000000
  0.125000  0.500000  0.000000     32.000000
 -0.375000  0.125000  0.000000     32.000000
 -0.250000  0.375000  0.000000     32.000000
  0.125000  0.250000  0.000000     32.000000
 -0.125000  0.125000  0.000000     16.000000
  0.000000  0.125000  0.000000     32.000000
  0.375000  0.375000  0.000000     16.000000
 -0.250000 -0.375000  0.000000     32.000000
 -0.375000  0.375000  0.000000     16.000000
  0.000000  0.375000  0.000000     32.000000

 Following cartesian coordinates:
            Coordinates               Weight
  0.024879  0.000000  0.000000     16.000000
  0.012439 -0.021546  0.000000     32.000000
  0.049758 -0.014364  0.000000     32.000000
  0.012439 -0.050273  0.000000     32.000000
  0.062197  0.021546  0.000000     32.000000
 -0.024879  0.028727  0.000000     32.000000
  0.012439  0.035909  0.000000     32.000000
  0.037318  0.007182  0.000000     32.000000
  0.000000  0.014364  0.000000     16.000000
  0.012439  0.007182  0.000000     32.000000
  0.074636  0.000000  0.000000     16.000000
 -0.062197 -0.007182  0.000000     32.000000
  0.000000  0.043091  0.000000     16.000000
  0.037318  0.021546  0.000000     32.000000

 SYSTEM =  SiC
 POSCAR =  B N

 Startparameter for this run:
   NWRITE =      2    write-flag & timer
   PREC   = accura    normal or accurate (medium, high low for compatibility)
   ISTART =      1    job   : 0-new  1-cont  2-samecut
   ICHARG =      0    charge: 1-file 2-atom 10-const
   ISPIN  =      2    spin polarized calculation?
   LNONCOLLINEAR =      F non collinear calculations
   LSORBIT =      F    spin-orbit coupling
   INIWAV =      1    electr: 0-lowe 1-rand  2-diag
   LASPH  =      T    aspherical Exc in radial PAW
   METAGGA=      F    non-selfconsistent MetaGGA calc.

 Electronic Relaxation 1
   ENCUT  =  550.0 eV  40.42 Ry    6.36 a.u.  19.22 19.22 67.15*2*pi/ulx,y,z
   ENINI  =  550.0     initial cutoff
   ENAUG  =  627.1 eV  augmentation charge cutoff
   NELM   =    100;   NELMIN=  2; NELMDL=  0     # of ELM steps
   EDIFF  = 0.1E-04   stopping-criterion for ELM
   LREAL  =      T    real-space projection
   NLSPLINE    = F    spline interpolate recip. space projectors
   LCOMPAT=      F    compatible to vasp.4.4
   GGA_COMPAT  = T    GGA compatible to vasp.4.4-vasp.4.6
   LMAXPAW     = -100 max onsite density
   LMAXMIX     =    2 max onsite mixed and CHGCAR
   VOSKOWN=      0    Vosko Wilk Nusair interpolation
   ROPT   =   -0.00025  -0.00025
 Ionic relaxation
   EDIFFG = -.2E-01   stopping-criterion for IOM
   NSW    =    500    number of steps for IOM
   NBLOCK =      1;   KBLOCK =    500    inner block; outer block
   IBRION =      2    ionic relax: 0-MD 1-quasi-New 2-CG
   NFREE  =      1    steps in history (QN), initial steepest desc. (CG)
   ISIF   =      2    stress and relaxation
   IWAVPR =     11    prediction:  0-non 1-charg 2-wave 3-comb
   ISYM   =      2    0-nonsym 1-usesym 2-fastsym
   LCORR  =      T    Harris-Foulkes like correction to forces

   POTIM  = 0.5000    time-step for ionic-motion
   TEIN   =    0.0    initial temperature
   TEBEG  =    0.0;   TEEND  =   0.0 temperature during run
   SMASS  =  -3.00    Nose mass-parameter (am)
   estimated Nose-frequenzy (Omega)   =  0.10E-29 period in steps =****** mass=  -0.231E-26a.u.
   SCALEE = 1.0000    scale energy and forces
   NPACO  =    256;   APACO  = 16.0  distance and # of slots for P.C.
   PSTRESS=    0.0 pullay stress

  Mass of Ions in am
   POMASS =  10.81 14.00
  Ionic Valenz
   ZVAL   =   3.00  5.00
  Atomic Wigner-Seitz radii
  virtual crystal weights
   VCA    =   1.00  1.00
   NELECT =     130.0000    total number of electrons
   NUPDOWN=      -1.0000    fix difference up-down

 DOS related values:
   EMIN   =  10.00;   EMAX   =-10.00  energy-range for DOS
   EFERMI =   0.00
   ISMEAR =     0;   SIGMA  =   0.05  broadening in eV -4-tet -1-fermi 0-gaus

 Electronic relaxation 2 (details)
   IALGO  =     68    algorithm
   LDIAG  =      T    sub-space diagonalisation (order eigenvalues)
   LSUBROT=      F    optimize rotation matrix (better conditioning)
   TURBO    =      0    0=normal 1=particle mesh
   IRESTART =      0    0=no restart 2=restart with 2 vectors
   NREBOOT  =      0    no. of reboots
   NMIN     =      0    reboot dimension
   EREF     =   0.00    reference energy to select bands
   IMIX   =      4    mixing-type and parameters
     AMIX     =   0.40;   BMIX     =  1.00
     AMIX_MAG =   1.60;   BMIX_MAG =  1.00
     AMIN     =   0.10
     WC   =   100.;   INIMIX=   1;  MIXPRE=   1;  MAXMIX= -45

 Intra band minimization:
   WEIMIN = 0.0010     energy-eigenvalue tresh-hold
   EBREAK =  0.25E-07  absolut break condition
   DEPER  =   0.30     relativ break condition

   TIME   =   0.40     timestep for ELM

[...]

[...]

 eigenvalues of (default mixing * dielectric matrix)
  average eigenvalue GAMMA=   0.8434
  0.8434

[...]

 d Force =-0.1934634E-04[-0.179E-03, 0.141E-03]  d Energy =-0.2389832E-04 0.455E-05
 d Force = 0.4480201E-01[ 0.440E-01, 0.456E-01]  d Ewald  = 0.4480215E-01-0.142E-06

 Steepest descent step on ions:
 trial-energy change:    0.000024  1 .order    0.000019   -0.000141    0.000179
  (g-gl).g = 0.141E-03      g.g   = 0.141E-03  gl.gl    = 0.000E+00
 g(Force)  = 0.141E-03   g(Stress)= 0.000E+00 ortho     = 0.000E+00
 gamma     =   0.00000
 trial     =   1.00000
 opt step  =   0.43956  (harmonic =   0.43956) maximal distance =0.00045276
 next E    =  -308.068190   (d E  =  -0.00003)

 real space projection operators:
  max/ min on nodes  :       1786.75       1660.88

[...]

 eigenvalue-minimisations  :  5472
 total energy-change (2. order) :-0.1483895E-04  (-0.1330598E-04)
 number of electron     129.9999985 magnetization       0.0000000
 augmentation part        3.8859942 magnetization      -0.0000002

 Broyden mixing:
  rms(total) = 0.13170E-02    rms(broyden)= 0.13166E-02
  rms(prec ) = 0.13440E-02
  weight for this iteration     100.00

 eigenvalues of (default mixing * dielectric matrix)
  average eigenvalue GAMMA=   0.7767
  0.7767

[...]

--------------------------------------- Iteration      3(   3)  ---------------------------------------

 eigenvalue-minimisations  :  3766
 total energy-change (2. order) : 0.2247918E-05  (-0.4046299E-06)
 number of electron     129.9999985 magnetization       0.0000000
 augmentation part        3.8859942 magnetization      -0.0000002

 Free energy of the ion-electron system (eV)
  alpha Z        PSCENC =        30.07105360
  Ewald energy   TEWEN  =     42234.06301304
  -Hartree energ DENC   =    -46951.38386400
  -exchange      EXHF   =         0.00000000
  -V(xc)+E(xc)   XCENC  =       568.23136670
  PAW double counting   =     15562.25713611   -15621.02769549
  entropy T*S    EENTRO =        -0.00000000
  eigenvalues    EBANDS =     -1797.42036661
  atomic energy  EATOM  =      5564.66905199
  Solvation  Ediel_sol  =       102.47211549
  free energy    TOTEN  =      -308.06818917 eV

  energy without entropy =     -308.06818917  energy(sigma->0) =     -308.06818917

 average (electrostatic) potential at core
  the test charge radii are     0.7672  0.7089
  (the norm of the test charge is              1.0000)
       1 -38.5712       2 -38.7825       3 -38.7826       4 -38.5712       5 -38.6600
       6 -38.7826       7 -38.7826       8 -38.5725       9 -38.5726      10 -38.7827
      11 -38.7826      12 -38.6600      13 -38.5725      14 -38.6600      15 -38.5712
      16 -78.3373      17 -76.2067      18 -76.1885      19 -76.2067      20 -76.1246
      21 -76.2067      22 -77.5149      23 -77.5149      24 -76.2067      25 -76.1099
      26 -77.5150      27 -76.1885      28 -76.1098      29 -76.1099      30 -76.2067
      31 -76.2067      32 -76.1885

 E-fermi :  -3.4085     XC(G=0):  -1.1922     alpha+bet : -1.0232

[...]

 spin component 2

[...]

 k-point    14 :       0.0000    0.3750    0.0000
  band No.  band energies     occupation
      1     -27.4870      1.00000
      2     -24.5910      1.00000
      3     -24.1887      1.00000
      4     -24.1435      1.00000
      5     -23.5931      1.00000
      6     -23.2891      1.00000
      7     -23.1621      1.00000
      8     -22.8313      1.00000
      9     -22.7891      1.00000
     10     -22.2747      1.00000
     11     -22.2142      1.00000
     12     -22.0519      1.00000
     13     -21.7647      1.00000
     14     -21.7207      1.00000
     15     -21.4621      1.00000
     16     -21.3359      1.00000
     17     -18.3827      1.00000
     18     -15.5150      1.00000
     19     -15.4952      1.00000
     20     -14.9270      1.00000
     21     -14.8810      1.00000
     22     -14.6639      1.00000
     23     -14.6471      1.00000
     24     -13.8981      1.00000
     25     -13.8916      1.00000
     26     -13.6073      1.00000
     27     -13.2275      1.00000
     28     -13.1446      1.00000
     29     -12.7857      1.00000
     30     -12.7662      1.00000
     31     -12.4108      1.00000
     32     -11.9742      1.00000
     33     -11.9250      1.00000
     34     -11.4427      1.00000
     35     -11.3011      1.00000
     36     -11.1137      1.00000
     37     -11.0681      1.00000
     38     -11.0605      1.00000
     39     -10.8331      1.00000
     40     -10.7695      1.00000
     41     -10.5415      1.00000
     42     -10.5250      1.00000
     43     -10.3572      1.00000
     44     -10.3292      1.00000
     45     -10.1900      1.00000
     46     -10.0307      1.00000
     47      -9.7589      1.00000
     48      -9.5073      1.00000
     49      -9.3462      1.00000
     50      -9.3273      1.00000
     51      -9.1965      1.00000
     52      -8.8055      1.00000
     53      -8.6618      1.00000
     54      -8.6241      1.00000
     55      -8.5084      1.00000
     56      -8.4682      1.00000
     57      -8.0501      1.00000
     58      -7.8790      1.00000
     59      -7.4956      1.00000
     60      -7.4436      1.00000
[...]
     86       1.0201      0.00000
     87       1.1880      0.00000
     88       1.2511      0.00000
     89       1.2729      0.00000
     90       1.2843      0.00000
     91       1.3354      0.00000
     92       1.3782      0.00000
     93       1.3783      0.00000
     94       1.5031      0.00000
     95       1.6143      0.00000
     96       1.6154      0.00000
     97       1.6825      0.00000
     98       1.7479      0.00000
     99       1.7486      0.00000
    100       1.8356      0.00000

[...]

 soft charge-density along one line, spin component           2
         0         1         2         3         4         5         6         7         8         9
 total charge-density along one line

------------------------ aborting loop because EDIFF is reached ----------------------------------------

[...]

  FORCE on cell =-STRESS in cart. coord.  units (eV):
  Direction    XX          YY          ZZ          XY          YZ          ZX
  Alpha Z    30.07105    30.07105    30.07105
  Ewald   46699.63367 46699.62692-51165.20300    -0.00000     0.00000     0.00000
  Hartree 46454.32095 46454.31635-45957.25333     0.00021    -0.00000    -0.00000
  E(xc)    -525.20335  -525.20363  -528.08335    -0.00563    -0.00000     0.00000
  Local  -94534.38540-94534.37472 95443.09135     0.00339     0.00000     0.00000
  n-local  -245.86348  -245.86266  -260.84227     0.01740    -0.00000     0.00000
  augment    17.01853    17.01841    22.55302     0.00005     0.00000    -0.00000
  Kinetic  2086.74886  2086.74322  2415.26880    -0.20244     0.00000    -0.00000
  Fock        0.00000     0.00000     0.00000     0.00000     0.00000     0.00000
  Total     -17.65916   -17.66505    -0.39773     0.00000     0.00000     0.00000
  in kB      -9.21376    -9.21683    -0.20752     0.00000     0.00000     0.00000

 VOLUME and BASIS-vectors are now :
  energy-cutoff  :      550.00
  volume of cell :     3070.74
      direct lattice vectors                 reciprocal lattice vectors
     5.024366704 -8.702497373  0.000000000     0.099515029 -0.057454772  0.000000000
     5.024366704  8.702497373  0.000000000     0.099515029  0.057454772  0.000000000
     0.000000000  0.000000000 35.114664386     0.000000000  0.000000000  0.028478131

  length of vectors
    10.048767154 10.048767154 35.114664386     0.114909929  0.114909929  0.028478131

 FORCES acting on ions
    electron-ion (+dipol)            ewald-force                    non-local-force                 convergence-correction
   0.316E+01 0.182E+01 -.176E-07   -.315E+01 -.182E+01 0.710E-19   0.399E-01 0.232E-01 0.000E+00   -.237E-02 -.128E-02 -.599E-13
   0.139E+02 0.241E+01 -.193E-06   -.145E+02 -.180E+01 0.156E-18   0.768E+00 -.588E+00 0.000E+00   0.104E-02 -.627E-03 -.399E-13
   0.485E+01 -.132E+02 -.423E-07   -.570E+01 0.135E+02 0.147E-18   0.893E+00 -.371E+00 0.000E+00   0.113E-02 -.616E-03 -.989E-12
   0.129E-03 -.365E+01 -.324E-09   -.168E-10 0.364E+01 0.598E-20   0.867E-18 -.460E-01 0.000E+00   -.312E-07 0.270E-02 -.100E-11
   0.190E+01 -.110E+01 0.147E-07   -.173E+01 0.999E+00 -.427E-18   -.172E+00 0.995E-01 0.000E+00   0.801E-03 -.588E-03 -.921E-12
   0.903E+01 0.108E+02 -.168E-06   -.882E+01 -.117E+02 0.516E-19   -.126E+00 0.959E+00 0.000E+00   -.103E-03 0.128E-02 0.283E-12
   -.485E+01 -.132E+02 0.419E-07   0.570E+01 0.135E+02 -.623E-18   -.893E+00 -.371E+00 0.000E+00   -.113E-02 -.616E-03 -.125E-11
   -.275E+01 -.159E+01 -.168E-08   0.283E+01 0.163E+01 -.516E-18   -.108E+00 -.623E-01 0.000E+00   0.279E-02 0.156E-02 -.120E-11
   0.136E-03 0.318E+01 -.216E-09   0.404E-11 -.326E+01 0.988E-19   0.000E+00 0.124E+00 0.000E+00   -.471E-07 -.329E-02 -.579E-12
   -.903E+01 0.108E+02 0.168E-06   0.882E+01 -.117E+02 0.281E-18   0.126E+00 0.959E+00 0.000E+00   0.103E-03 0.128E-02 -.194E-12
   -.139E+02 0.241E+01 0.192E-06   0.145E+02 -.180E+01 -.228E-18   -.768E+00 -.588E+00 0.000E+00   -.104E-02 -.627E-03 -.790E-12
   0.154E-03 0.220E+01 0.338E-09   -.462E-11 -.200E+01 0.638E-19   -.173E-17 -.199E+00 0.000E+00   -.135E-07 0.104E-02 -.500E-12
   0.275E+01 -.159E+01 0.174E-08   -.283E+01 0.163E+01 0.228E-18   0.108E+00 -.623E-01 0.000E+00   -.279E-02 0.156E-02 -.157E-11
   -.190E+01 -.110E+01 -.155E-07   0.173E+01 0.999E+00 0.517E-18   0.172E+00 0.995E-01 0.000E+00   -.801E-03 -.588E-03 -.155E-11
   -.316E+01 0.182E+01 0.175E-07   0.315E+01 -.182E+01 0.381E-18   -.399E-01 0.232E-01 0.000E+00   0.237E-02 -.128E-02 -.369E-13
   -.257E-02 0.225E-02 -.615E-10   0.388E-12 -.232E-02 -.272E-18   0.000E+00 0.494E-03 0.000E+00   -.225E-07 0.375E-04 0.205E-11
   0.728E+01 0.194E+00 -.439E-06   -.758E+01 -.263E+00 0.962E-19   0.412E+00 0.672E-01 0.000E+00   0.842E-03 0.183E-03 0.818E-13
   0.146E+02 -.841E+01 0.140E-06   -.154E+02 0.888E+01 0.460E-18   0.971E+00 -.560E+00 0.000E+00   0.679E-03 -.650E-03 -.139E-11
   0.347E+01 -.640E+01 -.201E-06   -.356E+01 0.669E+01 0.517E-18   0.148E+00 -.390E+00 0.000E+00   0.152E-03 -.840E-03 -.238E-11
   -.305E-02 0.126E-02 -.717E-11   -.380E-11 -.167E-02 0.274E-18   0.000E+00 0.867E-04 0.000E+00   -.246E-06 0.210E-03 0.264E-13
   0.380E+01 0.621E+01 -.479E-07   -.401E+01 -.643E+01 -.275E-18   0.264E+00 0.324E+00 0.000E+00   0.250E-03 0.763E-03 -.239E-12
   0.561E+02 0.324E+02 -.518E-06   -.654E+02 -.378E+02 0.613E-19   0.952E+01 0.549E+01 0.000E+00   0.779E-04 0.632E-03 0.177E-11
   -.322E-02 -.648E+02 -.369E-10   0.159E-10 0.755E+02 -.390E-18   0.000E+00 -.110E+02 0.000E+00   -.538E-07 -.383E-04 -.747E-12
   -.348E+01 -.640E+01 0.201E-06   0.356E+01 0.669E+01 -.790E-18   -.148E+00 -.390E+00 0.000E+00   -.152E-03 -.840E-03 -.403E-11
   -.405E+00 0.232E+00 0.466E-07   0.466E+00 -.268E+00 -.559E-18   -.803E-01 0.463E-01 0.000E+00   0.667E-02 -.437E-02 -.801E-12
   -.561E+02 0.324E+02 0.518E-06   0.654E+02 -.378E+02 -.125E-18   -.952E+01 0.549E+01 0.000E+00   -.780E-04 0.632E-03 0.935E-12
   -.146E+02 -.841E+01 -.140E-06   0.154E+02 0.888E+01 -.941E-18   -.971E+00 -.560E+00 0.000E+00   -.679E-03 -.650E-03 -.245E-11
   -.303E-02 -.462E+00 0.429E-10   -.220E-11 0.535E+00 -.180E-18   0.000E+00 -.921E-01 0.000E+00   -.168E-06 0.775E-02 -.232E-11
   0.399E+00 0.232E+00 -.466E-07   -.466E+00 -.268E+00 0.739E-18   0.803E-01 0.463E-01 0.000E+00   -.667E-02 -.437E-02 -.354E-11
   -.381E+01 0.621E+01 0.479E-07   0.401E+01 -.643E+01 0.852E-18   -.264E+00 0.324E+00 0.000E+00   -.249E-03 0.763E-03 -.639E-12
   -.728E+01 0.194E+00 0.439E-06   0.758E+01 -.263E+00 0.435E-19   -.412E+00 0.672E-01 0.000E+00   -.842E-03 0.183E-03 -.165E-11
   -.310E-02 0.168E+02 -.921E-10   0.346E-11 -.178E+02 0.283E-18   0.000E+00 0.112E+01 0.000E+00   0.771E-07 0.847E-03 0.477E-12
   -.489E-01 -.242E-02 -.111E-07   -.308E-14 -.174E-12 0.000E+00   -.389E-15 0.179E-02 0.000E+00   0.543E-08 0.146E-03 -.252E-10

 POSITION                                       TOTAL-FORCE (eV/Angst)
      1.25632     -0.72508     17.55733         0.003198      0.002011      0.000000
      2.52427      1.45699     17.55733        -0.001661      0.000929      0.000000
      3.76865      3.61228     17.55733        -0.001834      0.000943      0.000000
      5.02437      5.80139     17.55733         0.000000     -0.003675      0.000000
      2.51189     -2.90067     17.55733        -0.000650      0.000496      0.000000
      3.78000     -0.71802     17.55733        -0.000092     -0.001720      0.000000
      6.28010      3.61228     17.55733         0.001834      0.000943      0.000000
      3.76818     -5.07651     17.55733        -0.003039     -0.001994      0.000000
      5.02437     -2.90069     17.55733         0.000000      0.002982      0.000000
      6.26874     -0.71802     17.55733         0.000092     -0.001720      0.000000
      7.52447      1.45699     17.55733         0.001661      0.000929      0.000000
      5.02437     -7.25241     17.55733         0.000000     -0.000830      0.000000
      6.28056     -5.07651     17.55733         0.003039     -0.001994      0.000000
      7.53685     -2.90067     17.55733         0.000650      0.000496      0.000000
      8.79242     -0.72508     17.55733        -0.003198      0.002011      0.000000
      5.02437      1.45040     17.55733         0.000000      0.000443      0.000000
      1.26548      0.72342     17.55733        -0.005855     -0.003746      0.000000
      2.51021      2.90197     17.55733        -0.007446      0.004427      0.000000
      3.77452      5.06921     17.55733         0.000323      0.007050      0.000000
      5.02437      7.25208     17.55733        -0.000000     -0.000125      0.000000
      2.51533     -1.44141     17.55733        -0.005826     -0.003214      0.000000
      3.78312      0.73379     17.55733         0.000266     -0.000434      0.000000
      5.02437      2.88366     17.55733         0.000000      0.000194      0.000000
      6.27422      5.06921     17.55733        -0.000323      0.007050      0.000000
      3.76731     -3.62547     17.55733         0.000936     -0.000333      0.000000
      6.26562      0.73379     17.55733        -0.000266     -0.000434      0.000000
      7.53853      2.90197     17.55733         0.007446      0.004427      0.000000
      5.02437     -5.80278     17.55733         0.000000      0.001111      0.000000
      6.28143     -3.62547     17.55733        -0.000936     -0.000333      0.000000
      7.53342     -1.44141     17.55733         0.005826     -0.003214      0.000000
      8.78327      0.72342     17.55733         0.005855     -0.003746      0.000000
      5.02437     -1.45267     17.55733        -0.000000     -0.008929      0.000000
    total drift:                               -0.048933     -0.000483     -0.000000

  FREE ENERGIE OF THE ION-ELECTRON SYSTEM (eV)
  free  energy   TOTEN  =      -308.06818917 eV

  energy  without entropy=     -308.06818917  energy(sigma->0) =     -308.06818917

 d Force = 0.5291506E-04[ 0.529E-05, 0.101E-03]  d Energy = 0.5393522E-04-0.102E-05
 d Force =-0.2491095E-01[-0.252E-01,-0.247E-01]  d Ewald  =-0.2491098E-01 0.250E-07

 reached required accuracy - stopping structural energy minimisation
 writing wavefunctions

 total charge

[...]

 magnetization (x)

# of ion       s       p       d       tot
    1        0.000   0.000   0.000   0.000
    2        0.000  -0.000   0.000  -0.000
    3        0.000  -0.000   0.000  -0.000
    4        0.000  -0.000   0.000  -0.000
    5        0.000  -0.000   0.000   0.000
    6        0.000  -0.000   0.000  -0.000
    7        0.000  -0.000   0.000  -0.000
    8        0.000  -0.000   0.000  -0.000
    9        0.000  -0.000   0.000  -0.000
   10        0.000  -0.000   0.000  -0.000
   11        0.000  -0.000   0.000  -0.000
   12        0.000  -0.000   0.000  -0.000
   13        0.000  -0.000   0.000  -0.000
   14        0.000  -0.000   0.000  -0.000
   15        0.000   0.000   0.000   0.000
   16       -0.000  -0.000   0.000  -0.000
   17       -0.000   0.000   0.000   0.000
   18       -0.000  -0.000   0.000  -0.000
   19       -0.000  -0.000   0.000  -0.000
   20       -0.000  -0.000   0.000  -0.000
   21       -0.000  -0.000   0.000  -0.000
   22        0.000   0.000   0.000   0.000
   23        0.000  -0.000   0.000  -0.000
   24       -0.000  -0.000   0.000  -0.000
   25        0.000  -0.000   0.000  -0.000
   26        0.000   0.000   0.000   0.000
   27       -0.000  -0.000   0.000  -0.000
   28       -0.000   0.000   0.000   0.000
   29        0.000   0.000   0.000   0.000
   30       -0.000  -0.000   0.000  -0.000
   31       -0.000   0.000   0.000   0.000
   32        0.000   0.000   0.000   0.000
tot         -0.000  -0.000   0.000  -0.000