 vasp.5.4.4.18Apr17-6-g9f103f2a35 (build May 01 2020 14:57:12) complex

 executed on             LinuxIFC date 2021.03.16  14:51:17

 INCAR:
 POTCAR:    PAW_PBE B 06Sep2000
 POTCAR:    PAW_PBE N 08Apr2002
 POTCAR:    PAW_PBE C 08Apr2002
 POTCAR:    PAW_PBE F 08Apr2002
 POTCAR:    PAW_PBE O 08Apr2002

 POTCAR:    PAW_PBE B 06Sep2000
   VRHFIN =B: s2p1

   TITEL  = PAW_PBE B 06Sep2000
   POMASS =   10.811; ZVAL   =    3.000    mass and valenz
   ENMAX  =  318.614; ENMIN  =  238.960 eV

 POTCAR:    PAW_PBE N 08Apr2002
   VRHFIN =N: s2p3

   TITEL  = PAW_PBE N 08Apr2002
   POMASS =   14.001; ZVAL   =    5.000    mass and valenz
   ENMAX  =  400.000; ENMIN  =  300.000 eV

 POTCAR:    PAW_PBE C 08Apr2002
   VRHFIN =C: s2p2

[...]

 POTCAR:    PAW_PBE F 08Apr2002
   VRHFIN =F: s2p5

[...]

 POTCAR:    PAW_PBE O 08Apr2002
   VRHFIN =O: s2p4

   TITEL  = PAW_PBE O 08Apr2002
   POMASS =   16.000; ZVAL   =    6.000    mass and valenz
   ENMAX  =  400.000; ENMIN  =  300.000 eV

 Optimization of the real space projectors (new method)

 maximal supplied QI-value         = 22.11
 optimisation between [QCUT,QGAM] = [ 11.94, 23.88] = [ 39.92,159.67] Ry
 Optimized for a Real-space Cutoff    1.18 Angstroem

   l    n(q)    QCUT    max X(q) W(low)/X(q) W(high)/X(q)  e(spline)
   0      8    11.939    53.033    0.11E-03    0.34E-03    0.60E-07
   0      8    11.939    34.740    0.11E-03    0.34E-03    0.59E-07
   1      8    11.939    30.949    0.22E-03    0.20E-03    0.17E-06
   1      8    11.939    19.518    0.20E-03    0.18E-03    0.16E-06
 Optimization of the real space projectors (new method)

[...]

   l    n(q)    QCUT    max X(q) W(low)/X(q) W(high)/X(q)  e(spline)
   0      8    11.883    14.049    0.56E-04    0.86E-04    0.22E-06
   0      8    11.883     8.945    0.81E-04    0.11E-03    0.30E-06
   1      8    11.883     7.086    0.16E-03    0.15E-04    0.31E-06
   1      8    11.883     6.747    0.15E-03    0.14E-04    0.28E-06
 Optimization of the real space projectors (new method)

 maximal supplied QI-value         = 24.76
 optimisation between [QCUT,QGAM] = [ 11.88, 24.01] = [ 39.54,161.47] Ry
 Optimized for a Real-space Cutoff    1.18 Angstroem

   l    n(q)    QCUT    max X(q) W(low)/X(q) W(high)/X(q)  e(spline)
   0      8    11.883    20.381    0.86E-04    0.11E-03    0.31E-06
   0      8    11.883    15.268    0.94E-04    0.12E-03    0.33E-06
   1      8    11.883     5.964    0.19E-03    0.18E-04    0.33E-06
   1      8    11.883     5.382    0.17E-03    0.20E-04    0.29E-06
  PAW_PBE B 06Sep2000                   :
  PAW_PBE N 08Apr2002                   :
  PAW_PBE C 08Apr2002                   :
  PAW_PBE F 08Apr2002                   :
  PAW_PBE O 08Apr2002                   :

 POSCAR: B N C F O
  positions in direct lattice
  velocities in cartesian coordinates

 METAGGA = SCAN     LMAXTAU =  6    LMIXTAU =  F

 ion  position               nearest neighbor table
   1  0.111  0.056  0.500-  37 1.45  42 1.45  43 1.45
   2  0.111  0.222  0.500-  38 1.45  37 1.45  44 1.45
   3  0.111  0.389  0.500-  45 1.45  38 1.45  39 1.45
   4  0.111  0.556  0.500-  46 1.45  39 1.45  40 1.45
   5  0.111  0.722  0.500-  40 1.45  47 1.45  41 1.45
   6  0.111  0.889  0.500-  42 1.45  41 1.45  48 1.45
   7  0.278  0.056  0.500-  48 1.45  49 1.45  43 1.45
   8  0.278  0.222  0.500-  43 1.45  44 1.45  50 1.45
   9  0.278  0.389  0.500-  45 1.45  51 1.45  44 1.45
  10  0.278  0.556  0.500-  45 1.45  52 1.45  46 1.45
  11  0.278  0.722  0.500-  46 1.45  53 1.45  47 1.45
  12  0.278  0.889  0.500-  47 1.45  54 1.45  48 1.45
  13  0.444  0.056  0.500-  54 1.45  55 1.45  49 1.45
  14  0.444  0.222  0.500-  56 1.45  49 1.45  50 1.45
  15  0.444  0.389  0.500-  51 1.45  57 1.45  50 1.45
  16  0.444  0.556  0.500-  52 1.45  58 1.45  51 1.45
  17  0.444  0.722  0.500-  52 1.45  59 1.45  53 1.45
  18  0.444  0.889  0.500-  53 1.45  60 1.45  54 1.45
  19  0.611  0.056  0.500-  60 1.45  61 1.45  55 1.45
  20  0.611  0.222  0.500-  62 1.45  55 1.45  56 1.45
  21  0.611  0.389  0.500-  57 1.45  63 1.45  56 1.45
  22  0.611  0.556  0.500-  58 1.45  57 1.45  64 1.45
  23  0.611  0.722  0.500-  58 1.45  59 1.45  65 1.45
  24  0.611  0.889  0.500-  59 1.45  66 1.45  60 1.45
  25  0.778  0.056  0.500-  67 1.45  66 1.45  61 1.45
  26  0.778  0.222  0.500-  68 1.45  61 1.45  62 1.45
  27  0.778  0.389  0.500-  63 1.45  69 1.45  62 1.45
  28  0.778  0.556  0.500-  64 1.45  63 1.45  70 1.45
  29  0.778  0.722  0.500-  64 1.45  65 1.45  71 1.45
  30  0.778  0.889  0.500-  65 1.45  66 1.45  72 1.45
  31  0.944  0.056  0.500-  67 1.45  37 1.45  72 1.45
  32  0.944  0.222  0.500-  38 1.45  67 1.45  68 1.45
  33  0.944  0.389  0.500-  39 1.45  68 1.45  69 1.45
  34  0.944  0.556  0.500-  69 1.45  40 1.45  70 1.45
  35  0.944  0.722  0.500-  70 1.45  71 1.45  41 1.45
  36  0.944  0.889  0.500-  71 1.45  72 1.45  42 1.45
  37  0.056  0.111  0.500-   1 1.45   2 1.45  31 1.45
  38  0.056  0.278  0.500-   2 1.45  32 1.45   3 1.45
  39  0.056  0.444  0.500-  33 1.45   4 1.45   3 1.45
  40  0.056  0.611  0.500-   5 1.45  34 1.45   4 1.45
  41  0.056  0.778  0.500-   6 1.45  35 1.45   5 1.45
  42  0.056  0.944  0.500-   1 1.45   6 1.45  36 1.45
  43  0.222  0.111  0.500-   8 1.45   7 1.45   1 1.45
  44  0.222  0.278  0.500-   8 1.45   2 1.45   9 1.45
  45  0.222  0.444  0.500-   9 1.45   3 1.45  10 1.45
  46  0.222  0.611  0.500-  11 1.45   4 1.45  10 1.45
  47  0.222  0.778  0.500-  12 1.45   5 1.45  11 1.45
  48  0.222  0.944  0.500-   7 1.45   6 1.45  12 1.45
  49  0.389  0.111  0.500-  14 1.45   7 1.45  13 1.45
  50  0.389  0.278  0.500-   8 1.45  14 1.45  15 1.45
  51  0.389  0.444  0.500-  15 1.45   9 1.45  16 1.45
  52  0.389  0.611  0.500-  17 1.45  16 1.45  10 1.45
  53  0.389  0.778  0.500-  18 1.45  11 1.45  17 1.45
  54  0.389  0.944  0.500-  13 1.45  12 1.45  18 1.45
  55  0.556  0.111  0.500-  13 1.45  20 1.45  19 1.45
  56  0.556  0.278  0.500-  14 1.45  20 1.45  21 1.45
  57  0.556  0.444  0.500-  15 1.45  21 1.45  22 1.45
  58  0.556  0.611  0.500-  22 1.45  23 1.45  16 1.45
  59  0.556  0.778  0.500-  24 1.45  23 1.45  17 1.45
  60  0.556  0.944  0.500-  19 1.45  18 1.45  24 1.45
[...]
  68  0.889  0.278  0.500-  26 1.45  32 1.45  33 1.45
  69  0.889  0.444  0.500-  34 1.45  27 1.45  33 1.45
  70  0.889  0.611  0.500-  35 1.45  34 1.45  28 1.45
  71  0.889  0.778  0.500-  36 1.45  35 1.45  29 1.45
  72  0.889  0.944  0.500-  36 1.45  31 1.45  30 1.45
  73  0.372  0.314  0.673-  76 1.34  78 1.34  77 1.35  74 1.54
  74  0.354  0.317  0.630-  80 1.37  79 1.37  73 1.54  75 1.55
  75  0.342  0.410  0.618-  82 1.25  81 1.25  74 1.55
  76  0.461  0.396  0.684-  73 1.34
  77  0.377  0.229  0.682-  73 1.35
  78  0.296  0.312  0.693-  73 1.34
  79  0.434  0.317  0.612-  74 1.37
  80  0.268  0.226  0.622-  74 1.37
  81  0.424  0.491  0.613-  75 1.25
  82  0.253  0.394  0.615-  75 1.25

IMPORTANT INFORMATION: All symmetrisations will be switched off!
NOSYMM: (Re-)initialisation of all symmetry stuff for point group C_1.

 KPOINTS: K-Point Grid

Automatic generation of k-mesh.
Space group operators:
 irot       det(A)        alpha          n_x          n_y          n_z        tau_x        tau_y        tau_z
    1     1.000000     0.000000     1.000000     0.000000     0.000000     0.000000     0.000000     0.000000

 Subroutine IBZKPT returns following result:

 Found      5 irreducible k-points:

 Following reciprocal coordinates:
            Coordinates               Weight
  0.000000  0.000000  0.000000      1.000000
  0.333333  0.000000  0.000000      2.000000
  0.000000  0.333333  0.000000      2.000000
  0.333333  0.333333  0.000000      2.000000
 -0.333333  0.333333  0.000000      2.000000

 Following cartesian coordinates:
            Coordinates               Weight
  0.000000  0.000000  0.000000      1.000000
  0.022114 -0.012768  0.000000      2.000000
  0.022114  0.012768  0.000000      2.000000
  0.044229  0.000000  0.000000      2.000000
  0.000000  0.025535  0.000000      2.000000

 SYSTEM =  SiC
 POSCAR =  B N C F O

 Startparameter for this run:
   NWRITE =      2    write-flag & timer
   PREC   = accura    normal or accurate (medium, high low for compatibility)
   ISTART =      0    job   : 0-new  1-cont  2-samecut
   ICHARG =      2    charge: 1-file 2-atom 10-const
   ISPIN  =      2    spin polarized calculation?
   LNONCOLLINEAR =      F non collinear calculations
   LSORBIT =      F    spin-orbit coupling
   INIWAV =      1    electr: 0-lowe 1-rand  2-diag
   LASPH  =      T    aspherical Exc in radial PAW
   METAGGA=      F    non-selfconsistent MetaGGA calc.

 Electronic Relaxation 1
   ENCUT  =  550.0 eV  40.42 Ry    6.36 a.u.  28.82 28.82 67.15*2*pi/ulx,y,z
   ENINI  =  550.0     initial cutoff
   ENAUG  =  644.9 eV  augmentation charge cutoff
   NELM   =    100;   NELMIN=  2; NELMDL= -5     # of ELM steps
   EDIFF  = 0.1E-04   stopping-criterion for ELM
   LREAL  =      T    real-space projection
   NLSPLINE    = F    spline interpolate recip. space projectors
   LCOMPAT=      F    compatible to vasp.4.4
   GGA_COMPAT  = T    GGA compatible to vasp.4.4-vasp.4.6
   LMAXPAW     = -100 max onsite density
   LMAXMIX     =    2 max onsite mixed and CHGCAR
   VOSKOWN=      0    Vosko Wilk Nusair interpolation
   ROPT   =   -0.00025  -0.00025  -0.00025  -0.00025
   ROPT   =   -0.00025
 Ionic relaxation
   EDIFFG = -.2E-01   stopping-criterion for IOM
   NSW    =    500    number of steps for IOM
   NBLOCK =      1;   KBLOCK =    500    inner block; outer block
   IBRION =      2    ionic relax: 0-MD 1-quasi-New 2-CG
   NFREE  =      1    steps in history (QN), initial steepest desc. (CG)
   ISIF   =      2    stress and relaxation
   IWAVPR =     11    prediction:  0-non 1-charg 2-wave 3-comb
   ISYM   =      0    0-nonsym 1-usesym 2-fastsym
   LCORR  =      T    Harris-Foulkes like correction to forces

   POTIM  = 0.5000    time-step for ionic-motion
   TEIN   =    0.0    initial temperature
   TEBEG  =    0.0;   TEEND  =   0.0 temperature during run
   SMASS  =  -3.00    Nose mass-parameter (am)
   estimated Nose-frequenzy (Omega)   =  0.10E-29 period in steps =****** mass=  -0.519E-26a.u.
   SCALEE = 1.0000    scale energy and forces
   NPACO  =    256;   APACO  = 16.0  distance and # of slots for P.C.
   PSTRESS=    0.0 pullay stress

  Mass of Ions in am
   POMASS =  10.81 14.00 12.01 19.00 16.00
  Ionic Valenz
   ZVAL   =   3.00  5.00  4.00  7.00  6.00
  Atomic Wigner-Seitz radii
  virtual crystal weights
   VCA    =   1.00  1.00  1.00  1.00  1.00
   NELECT =     346.7000    total number of electrons
   NUPDOWN=      -1.0000    fix difference up-down

 DOS related values:
   EMIN   =  10.00;   EMAX   =-10.00  energy-range for DOS
   EFERMI =   0.00
   ISMEAR =     0;   SIGMA  =   0.05  broadening in eV -4-tet -1-fermi 0-gaus

 Electronic relaxation 2 (details)
   IALGO  =     68    algorithm
   LDIAG  =      T    sub-space diagonalisation (order eigenvalues)
   LSUBROT=      F    optimize rotation matrix (better conditioning)
   TURBO    =      0    0=normal 1=particle mesh
   IRESTART =      0    0=no restart 2=restart with 2 vectors
   NREBOOT  =      0    no. of reboots
[...]
   -.120E+02 0.193E+01 0.479E+02   0.117E+02 -.183E+01 -.472E+02   0.146E-02 -.741E-03 -.271E-03   -.187E-03 0.793E-04 0.732E-03
   -.226E+01 -.254E+01 0.438E+02   0.214E+01 0.253E+01 -.433E+02   0.120E-02 0.285E-03 0.309E-03   -.787E-04 -.162E-04 0.620E-03
   0.155E+02 -.512E+01 0.506E+02   -.153E+02 0.512E+01 -.499E+02   -.187E-03 -.569E-03 0.319E-03   0.199E-03 0.901E-05 0.738E-03
   0.129E+02 -.105E+02 0.510E+02   -.126E+02 0.104E+02 -.502E+02   -.115E-02 0.689E-03 -.243E-03   0.261E-03 -.129E-03 0.817E-03
   0.331E+01 -.786E+01 0.465E+02   -.316E+01 0.765E+01 -.458E+02   -.167E-02 0.119E-02 -.313E-03   0.133E-03 -.190E-03 0.690E-03
   -.318E+01 -.814E+00 0.428E+02   0.317E+01 0.726E+00 -.422E+02   -.120E-03 0.295E-03 0.543E-03   -.186E-04 -.916E-04 0.568E-03
   -.127E+01 0.285E+01 0.426E+02   0.121E+01 -.281E+01 -.421E+02   0.737E-03 -.994E-04 0.900E-03   -.518E-04 0.252E-04 0.573E-03
   0.784E+01 0.120E+01 0.459E+02   -.779E+01 -.115E+01 -.453E+02   0.342E-03 -.154E-03 0.643E-03   0.338E-04 0.575E-04 0.622E-03
   0.403E+02 -.876E+01 0.106E+03   -.397E+02 0.886E+01 -.105E+03   -.852E-03 -.241E-02 0.230E-02   0.510E-03 0.149E-03 0.176E-02
   0.299E+02 -.294E+02 0.108E+03   -.293E+02 0.291E+02 -.106E+03   -.476E-02 -.402E-02 0.380E-02   0.608E-03 -.270E-03 0.213E-02
   0.847E+01 -.284E+02 0.880E+02   -.818E+01 0.278E+02 -.866E+02   -.119E-02 0.445E-02 0.419E-02   0.231E-03 -.553E-03 0.154E-02
   0.589E-01 -.104E+02 0.721E+02   -.541E-01 0.100E+02 -.711E+02   0.716E-03 0.379E-02 -.234E-02   -.239E-04 -.319E-03 0.966E-03
   0.814E+01 0.430E+01 0.716E+02   -.812E+01 -.433E+01 -.707E+02   0.922E-03 0.101E-02 -.608E-02   -.135E-05 -.228E-04 0.974E-03
   0.271E+02 0.691E+01 0.860E+02   -.268E+02 -.675E+01 -.850E+02   0.113E-02 0.206E-03 -.730E-03   0.170E-03 0.144E-03 0.122E-02
   0.415E+02 0.186E+02 0.130E+03   -.410E+02 -.182E+02 -.129E+03   0.507E-02 0.185E-02 0.196E-02   0.379E-03 0.393E-03 0.207E-02
   0.339E+02 -.164E+02 0.162E+03   -.334E+02 0.167E+02 -.160E+03   -.947E-03 -.112E-01 -.684E-02   0.510E-03 0.313E-03 0.335E-02
   0.594E+01 -.455E+02 0.137E+03   -.570E+01 0.450E+02 -.135E+03   -.262E-02 -.314E-02 0.201E-01   0.147E-03 -.470E-03 0.322E-02
   -.487E+01 -.315E+02 0.903E+02   0.475E+01 0.307E+02 -.888E+02   0.666E-03 0.717E-02 0.461E-02   -.141E-03 -.672E-03 0.168E-02
   0.430E+01 -.340E+01 0.739E+02   -.436E+01 0.311E+01 -.729E+02   0.629E-03 0.360E-02 -.218E-02   -.539E-04 -.246E-03 0.970E-03
   0.232E+02 0.182E+02 0.881E+02   -.231E+02 -.181E+02 -.871E+02   0.164E-02 0.158E-02 -.783E-03   0.107E-03 0.948E-04 0.122E-02
   0.173E+02 0.391E+02 0.114E+03   -.171E+02 -.387E+02 -.113E+03   0.984E-03 0.240E-02 -.338E-03   0.115E-03 0.324E-03 0.172E-02
   0.643E+01 0.293E+02 0.171E+03   -.616E+01 -.287E+02 -.169E+03   -.694E-02 0.286E-02 -.125E-01   0.165E-03 0.652E-03 0.303E-02
   -.216E+02 -.162E+02 0.175E+03   0.216E+02 0.164E+02 -.173E+03   -.119E-01 -.958E-02 0.456E-02   -.167E-03 0.317E-03 0.397E-02
   -.274E+02 -.355E+02 0.119E+03   0.269E+02 0.349E+02 -.117E+03   0.328E-02 0.438E-02 -.433E-03   -.491E-03 -.429E-03 0.274E-02
   -.108E+02 -.143E+02 0.803E+02   0.105E+02 0.138E+02 -.791E+02   0.179E-02 0.469E-02 0.437E-02   -.311E-03 -.394E-03 0.125E-02
   0.648E+01 0.149E+02 0.796E+02   -.651E+01 -.149E+02 -.786E+02   0.892E-03 0.216E-02 -.213E-02   -.628E-04 -.375E-04 0.105E-02
   0.472E+00 0.267E+02 0.842E+02   -.463E+00 -.265E+02 -.833E+02   -.408E-03 0.950E-03 -.280E-03   0.355E-07 0.112E-03 0.122E-02
   -.129E+02 0.424E+02 0.118E+03   0.129E+02 -.418E+02 -.117E+03   -.413E-02 0.108E-02 -.106E-02   0.157E-04 0.415E-03 0.190E-02
   -.395E+02 0.236E+02 0.141E+03   0.392E+02 -.229E+02 -.139E+03   -.462E-02 -.166E-02 -.321E-03   -.249E-03 0.551E-03 0.274E-02
   -.449E+02 -.840E+01 0.120E+03   0.441E+02 0.853E+01 -.118E+03   0.623E-02 -.347E-02 0.116E-02   -.614E-03 0.124E-03 0.260E-02
   -.245E+02 -.139E+02 0.850E+02   0.239E+02 0.136E+02 -.836E+02   0.327E-02 0.120E-02 0.468E-02   -.504E-03 -.217E-03 0.149E-02
   -.537E+01 0.279E+01 0.722E+02   0.516E+01 -.293E+01 -.712E+02   0.981E-03 0.175E-02 -.312E-02   -.168E-03 -.117E-03 0.997E-03
[...]
   -.470E+01 0.390E-01 0.739E+02   0.475E+01 -.173E+00 -.729E+02   0.181E-03 0.178E-02 -.383E-02   0.489E-04 -.148E-03 0.942E-03
   -.112E+02 0.609E+01 0.730E+02   0.110E+02 -.603E+01 -.720E+02   0.201E-02 0.166E-03 -.361E-02   -.123E-03 0.325E-04 0.986E-03
   -.308E+01 0.391E+01 0.734E+02   0.292E+01 -.380E+01 -.725E+02   0.225E-02 -.105E-02 -.344E-02   -.117E-03 0.969E-04 0.102E-02
   0.125E+02 -.324E+01 0.761E+02   -.124E+02 0.327E+01 -.752E+02   0.532E-03 -.125E-02 -.361E-02   0.774E-04 0.390E-04 0.102E-02
   0.574E+00 0.223E+02 -.419E+03   -.119E+01 -.198E+02 0.408E+03   0.869E+00 -.169E+01 0.103E+02   0.574E-03 0.109E-02 -.436E-03
   -.759E+01 -.369E+02 -.317E+03   0.136E+02 0.478E+02 0.322E+03   -.554E+01 -.967E+01 -.385E+01   0.997E-03 0.224E-02 0.808E-04
   -.340E+02 -.970E+02 -.306E+03   0.337E+02 0.968E+02 0.307E+03   0.880E+00 0.176E+01 -.134E+00   0.138E-02 0.383E-02 -.470E-03
   -.536E+03 0.845E+02 -.916E+03   0.592E+03 -.866E+02 0.932E+03   -.553E+02 0.345E+01 -.164E+02   0.846E-03 0.228E-02 -.179E-02
   0.244E+03 0.526E+03 -.877E+03   -.270E+03 -.574E+03 0.891E+03   0.252E+02 0.495E+02 -.139E+02   0.106E-02 0.126E-02 -.501E-03
   0.248E+03 -.358E+03 -.104E+04   -.273E+03 0.401E+03 0.107E+04   0.253E+02 -.415E+02 -.307E+02   0.611E-03 0.144E-02 -.245E-02
   -.211E+03 0.432E+03 -.313E+03   0.237E+03 -.471E+03 0.288E+03   -.240E+02 0.399E+02 0.265E+02   0.125E-02 0.257E-02 0.628E-03
   0.562E+03 0.419E+02 -.440E+03   -.614E+03 -.411E+02 0.429E+03   0.522E+02 0.141E+01 0.132E+02   0.155E-02 0.317E-02 0.557E-03
   -.450E+03 -.154E+03 -.429E+03   0.502E+03 0.156E+03 0.423E+03   -.503E+02 -.975E-01 0.814E+01   -.151E-02 0.102E-02 0.148E-03
   0.188E+03 -.450E+03 -.465E+03   -.220E+03 0.492E+03 0.463E+03   0.322E+02 -.394E+02 0.399E+01   0.233E-02 -.571E-03 0.781E-03
   -.143E+01 -.361E+01 0.277E+01   -.284E-12 0.171E-12 -.284E-12   0.143E+01 0.359E+01 -.285E+01   0.896E-02 0.183E-01 0.889E-01

 POSITION                                       TOTAL-FORCE (eV/Angst)
      1.25602     -0.72517     17.55814        -0.000462     -0.000262      0.001108
      2.51214      1.45047     17.55775        -0.001699      0.000149      0.002099
      3.76834      3.62599     17.55610        -0.001679      0.001173      0.001599
      5.02436      5.80160     17.55660        -0.000181      0.000694      0.000365
      6.28043      7.97725     17.55781        -0.000016      0.000508     -0.000239
      7.53652     10.15291     17.55827        -0.000283     -0.000117      0.000148
      2.51214     -2.90087     17.55851        -0.000214     -0.000404      0.001157
      3.76818     -0.72520     17.55829        -0.001103     -0.001054      0.003398
      5.02445      1.45059     17.55648        -0.001409      0.000178      0.002113
      6.28043      3.62594     17.55584         0.000433      0.001537      0.002032
      7.53650      5.80160     17.55681         0.000233      0.000521      0.000183
      8.79260      7.97726     17.55802         0.000084      0.000136     -0.000063
      3.76824     -5.07650     17.55838         0.000104     -0.000019      0.000542
      5.02433     -2.90088     17.55901        -0.000152     -0.001378      0.001516
      6.28055     -0.72509     17.55766         0.000200     -0.001759      0.003322
      7.53643      1.45040     17.55690         0.001787      0.000419      0.002350
      8.79254      3.62595     17.55645         0.001148      0.000965      0.001173
     10.04868      5.80161     17.55751         0.000302      0.000205     -0.000240
      5.02433     -7.25211     17.55812         0.000151      0.000079     -0.000097
      6.28043     -5.07649     17.55831        -0.000235     -0.000333      0.000774
      7.53653     -2.90079     17.55802         0.000016     -0.001045      0.001682
      8.79257     -0.72513     17.55721         0.000849     -0.000496      0.002401
     10.04861      1.45040     17.55680         0.000910      0.000325      0.000891
     11.30476      3.62600     17.55740         0.000414      0.000382     -0.000114
      6.28043     -9.42774     17.55794        -0.000124      0.000412     -0.000249
      7.53654     -7.25210     17.55788        -0.000540      0.000018     -0.000137
      8.79262     -5.07645     17.55783        -0.000237      0.000011      0.000031
     10.04868     -2.90081     17.55758         0.000088     -0.000259      0.000280
     11.30474     -0.72520     17.55740         0.000420     -0.000246      0.000169
     12.56085      1.45040     17.55763         0.000165      0.000220     -0.000207
      7.53652    -11.60332     17.55781        -0.000399      0.000113      0.000260
      8.79265     -9.42773     17.55730        -0.000908      0.000414      0.000431
     10.04875     -7.25212     17.55718        -0.000529      0.000343     -0.000096
     11.30480     -5.07647     17.55772        -0.000120      0.000216     -0.000337
     12.56086     -2.90084     17.55808         0.000219     -0.000009     -0.000193
     13.81696     -0.72521     17.55804        -0.000137     -0.000062     -0.000059
      1.25606      0.72521     17.55764         0.000950      0.000257      0.000984
      2.51215      2.90083     17.55659         0.001503     -0.000552      0.001031
      3.76824      5.07646     17.55619         0.000576     -0.001116      0.000382
      5.02434      7.25207     17.55730         0.000040     -0.000546     -0.000198
      6.28043      9.42770     17.55816        -0.000064     -0.000199     -0.000258
      7.53651     11.60332     17.55807         0.000249      0.000231      0.000317
      2.51213     -1.45044     17.55822         0.001080      0.000805      0.001828
      3.76826      0.72518     17.55782         0.002190      0.000670      0.002457
      5.02434      2.90088     17.55448         0.000620     -0.001240      0.000962
      6.28044      5.07645     17.55592        -0.000336     -0.001580      0.000424
      7.53653      7.25207     17.55748        -0.000226     -0.000526     -0.000148
      8.79261      9.42769     17.55820         0.000056     -0.000010      0.000248
      3.76824     -3.62606     17.55861         0.000450      0.000736      0.001239
      5.02432     -1.45038     17.55897         0.000503      0.001714      0.002051
      6.28029      0.72517     17.55601        -0.000718      0.000483      0.001097
      7.53652      2.90079     17.55575        -0.001500     -0.001153      0.000787
      8.79261      5.07643     17.55655        -0.000511     -0.000775      0.000199
     10.04871      7.25206     17.55793        -0.000235     -0.000133     -0.000149
      5.02434     -5.80168     17.55819        -0.000033      0.000041      0.000365
      6.28041     -3.62605     17.55843         0.000019      0.001134      0.001469
      7.53650     -1.45044     17.55731        -0.000948      0.001577      0.001760
      8.79256      0.72522     17.55637        -0.001840      0.000316      0.001135
     10.04871      2.90082     17.55646        -0.000995     -0.000523      0.000603
     11.30480      5.07644     17.55765        -0.000384     -0.000297     -0.000256
[...]
      8.79261     -7.97730     17.55725         0.000518     -0.000284     -0.000036
     10.04870     -5.80167     17.55756         0.000231     -0.000252     -0.000445
     11.30479     -3.62605     17.55779        -0.000132     -0.000052     -0.000209
     12.56087     -1.45042     17.55783        -0.000229      0.000108     -0.000165
     13.81697      0.72520     17.55781         0.000070     -0.000054     -0.000288
      5.17051     -0.76978     23.63226         0.001709      0.001614     -0.001781
      5.05349     -0.48244     22.12792         0.000435      0.005238     -0.017801
      5.66924      0.87524     21.69526        -0.005344      0.017588     -0.007089
      6.45760     -0.84721     24.00685        -0.007120      0.010427      0.000706
      4.57444     -1.93399     23.94829         0.000354      0.002479     -0.018629
      4.57814      0.20805     24.34019         0.010015     -0.002953     -0.002928
      5.66134     -1.52028     21.47761        -0.005247     -0.008423      0.002314
      3.72383     -0.53945     21.82303        -0.000996     -0.011766      0.001581
      6.90100      0.87006     21.50374         0.016298     -0.012424     -0.004695
      4.87923      1.83432     21.60426        -0.007123     -0.002571      0.001981
    total drift:                                0.006181      0.001492      0.007774

  FREE ENERGIE OF THE ION-ELECTRON SYSTEM (eV)
  free  energy   TOTEN  =      -777.46346440 eV

  energy  without entropy=     -777.43097179  energy(sigma->0) =     -777.44721809

 d Force = 0.3782237E-04[ 0.285E-04, 0.472E-04]  d Energy = 0.3579412E-04 0.203E-05
 d Force =-0.3010716E+01[-0.301E+01,-0.301E+01]  d Ewald  =-0.3010716E+01-0.713E-07

 Conjugate gradient step on ions:
 trial-energy change:   -0.000036  1 .order   -0.000038   -0.000047   -0.000028
  (g-gl).g = 0.157E-03      g.g   = 0.170E-03  gl.gl    = 0.188E-03
 g(Force)  = 0.170E-03   g(Stress)= 0.000E+00 ortho     = 0.368E-06
 gamma     =   0.83265
 trial     =   0.27643
 opt step  =   0.69751  (harmonic =   0.69751) maximal distance =0.00102927
 next E    =  -777.463488   (d E  =  -0.00006)

 writing wavefunctions

 total charge

[...]

 magnetization (x)

# of ion       s       p       d       tot
    1       -0.000  -0.002   0.000  -0.002
    2       -0.000  -0.002   0.000  -0.002
    3       -0.000  -0.002   0.000  -0.002
    4       -0.000  -0.002   0.000  -0.002
    5       -0.000  -0.002   0.000  -0.002
    6       -0.000  -0.002   0.000  -0.002
    7       -0.000  -0.002   0.000  -0.002
    8       -0.000  -0.002   0.000  -0.002
    9       -0.000  -0.002   0.000  -0.002
   10       -0.000  -0.002   0.000  -0.002
   11       -0.000  -0.002   0.000  -0.002
   12       -0.000  -0.002   0.000  -0.002
   13       -0.000  -0.002   0.000  -0.002
   14       -0.000  -0.002   0.000  -0.002
   15       -0.000  -0.002   0.000  -0.002
   16       -0.000  -0.002   0.000  -0.002
   17       -0.000  -0.002   0.000  -0.002
   18       -0.000  -0.002   0.000  -0.002
   19       -0.000  -0.002   0.000  -0.002
   20       -0.000  -0.002   0.000  -0.002
   21       -0.000  -0.002   0.000  -0.002
   22       -0.000  -0.002   0.000  -0.002
   23       -0.000  -0.002   0.000  -0.002
   24       -0.000  -0.002   0.000  -0.002
   25       -0.000  -0.002   0.000  -0.002
   26       -0.000  -0.002   0.000  -0.002
   27       -0.000  -0.002   0.000  -0.002
   28       -0.000  -0.002   0.000  -0.002
   29       -0.000  -0.002   0.000  -0.002
   30       -0.000  -0.002   0.000  -0.002
   31       -0.000  -0.002   0.000  -0.002
   32       -0.000  -0.002   0.000  -0.002
   33       -0.000  -0.002   0.000  -0.002
   34       -0.000  -0.002   0.000  -0.002
   35       -0.000  -0.002   0.000  -0.002
   36       -0.000  -0.002   0.000  -0.002
   37        0.001   0.013   0.000   0.013
   38        0.001   0.013   0.000   0.013
   39        0.001   0.013   0.000   0.013
   40        0.001   0.013   0.000   0.013
   41        0.001   0.012   0.000   0.013
   42        0.001   0.012   0.000   0.013
   43        0.001   0.012   0.000   0.013
   44        0.001   0.013   0.000   0.013
   45        0.001   0.013   0.000   0.013
   46        0.001   0.013   0.000   0.013
   47        0.001   0.012   0.000   0.013
   48        0.001   0.012   0.000   0.013
   49        0.001   0.012   0.000   0.013
   50        0.001   0.012   0.000   0.013
   51        0.001   0.013   0.000   0.013
   52        0.001   0.013   0.000   0.013
   53        0.001   0.013   0.000   0.013
   54        0.001   0.012   0.000   0.013
   55        0.001   0.012   0.000   0.013
   56        0.001   0.012   0.000   0.013
   57        0.001   0.012   0.000   0.013
   58        0.001   0.013   0.000   0.013
   59        0.001   0.013   0.000   0.013
   60        0.001   0.012   0.000   0.013
[...]
   68        0.001   0.013   0.000   0.013
   69        0.001   0.013   0.000   0.013
   70        0.001   0.012   0.000   0.013
   71        0.001   0.012   0.000   0.013
   72        0.001   0.013   0.000   0.013
   73       -0.000  -0.000   0.000  -0.000
   74       -0.000  -0.001   0.000  -0.002
   75       -0.001  -0.007   0.000  -0.008
   76        0.000   0.000   0.000   0.000
   77       -0.000  -0.000   0.000  -0.000
   78        0.000   0.000   0.000   0.000
   79        0.000   0.002   0.000   0.002
   80        0.000   0.002   0.000   0.003
   81        0.001   0.093   0.000   0.094
   82        0.001   0.090   0.000   0.091
tot          0.003   0.566   0.000   0.569