 vasp.5.4.4.18Apr17-6-g9f103f2a35 (build Oct 02 2017 16:27:17) complex

 executed on             LinuxIFC date 2020.04.09  02:06:00

 INCAR:
 POTCAR:    PAW_PBE B 28Sep2005
 POTCAR:    PAW_PBE N_GW 10Apr2007

 POTCAR:    PAW_PBE B 28Sep2005
   VRHFIN =B: s2p1

   TITEL  = PAW_PBE B 28Sep2005
   POMASS =   10.811; ZVAL   =    3.000    mass and valenz
   ENMAX  =  318.614; ENMIN  =  238.960 eV

 POTCAR:    PAW_PBE N_GW 10Apr2007
   VRHFIN =N: s2p3

   TITEL  = PAW_PBE N_GW 10Apr2007
   POMASS =   14.001; ZVAL   =    5.000    mass and valenz
   ENMAX  =  420.902; ENMIN  =  315.677 eV

  PAW_PBE B 28Sep2005                   :
  PAW_PBE N_GW 10Apr2007                :

 POSCAR: B N
  positions in direct lattice
  velocities in cartesian coordinates
 exchange correlation table for  LEXCH =        8
   RHO(1)=    0.500       N(1)  =     2000
   RHO(2)=  100.500       N(2)  =     4000

 ion  position               nearest neighbor table
   1  0.333  0.667  0.111-   2 1.45   2 1.45   2 1.45
   2  0.667  0.333  0.111-   1 1.45   1 1.45   1 1.45

  LATTYP: Found a hexagonal cell.
 ALAT       =     2.5104528693
 C/A-ratio  =     5.9693414622

  Lattice vectors:

 A1 = (   1.2552264347,  -2.1741126873,   0.0000000000)
 A2 = (   1.2552264347,   2.1741126873,   0.0000000000)
 A3 = (   0.0000000000,   0.0000000000,  14.9857504017)

Analysis of symmetry for initial positions (statically):
 Subroutine PRICEL returns:
 Original cell was already a primitive cell.

 Routine SETGRP: Setting up the symmetry group for a
 hexagonal supercell.

 Subroutine GETGRP returns: Found 12 space group operations
 (whereof  6 operations were pure point group operations)
 out of a pool of 24 trial point group operations.

The static configuration has the point symmetry C_3v.
 The point group associated with its full space group is D_3h.

Analysis of symmetry for dynamics (positions and initial velocities):
 Subroutine PRICEL returns:
 Original cell was already a primitive cell.

[...]

The dynamic configuration has the point symmetry C_3v.
 The point group associated with its full space group is D_3h.

Analysis of constrained symmetry for selective dynamics:
 Subroutine PRICEL returns:
 Original cell was already a primitive cell.

[...]

The constrained configuration has the point symmetry C_3v.
 The point group associated with its full space group is D_3h.

Analysis of structural, dynamic, and magnetic symmetry:
 Subroutine PRICEL returns:
 Original cell was already a primitive cell.

 Routine SETGRP: Setting up the symmetry group for a
 hexagonal supercell.

 Subroutine GETGRP returns: Found 12 space group operations
 (whereof  6 operations were pure point group operations)
 out of a pool of 24 trial point group operations.

The magnetic configuration has the point symmetry C_3v.
 The point group associated with its full space group is D_3h.

 Subroutine INISYM returns: Found 12 space group operations
 (whereof  6 operations are pure point group operations),
 and found     1 'primitive' translations

 KPOINTS: 12x12x1

Automatic generation of k-mesh.
Space group operators:
 irot       det(A)        alpha          n_x          n_y          n_z        tau_x        tau_y        tau_z
    1     1.000000     0.000000     1.000000     0.000000     0.000000     0.000000     0.000000     0.000000
    2     1.000000   120.000000     0.000000     0.000000    -1.000000     0.000000     0.000000     0.000000
    3     1.000000   120.000000     0.000000     0.000000     1.000000     0.000000     0.000000     0.000000
    4    -1.000000   180.000000     0.499999    -0.866026     0.000000     0.000000     0.000000     0.000000
    5    -1.000000   180.000000    -0.499999    -0.866026     0.000000     0.000000     0.000000     0.000000
    6    -1.000000   180.000000     1.000000     0.000000     0.000000     0.000000     0.000000     0.000000
    7    -1.000000    60.000000     0.000000     0.000000    -1.000000     0.000000     0.000000     0.222825
    8    -1.000000   179.999999     0.000000     0.000000     1.000000     0.000000     0.000000     0.222825
    9    -1.000000    60.000000     0.000000     0.000000     1.000000     0.000000     0.000001     0.222825
   10     1.000000   180.000000     0.000000     1.000000     0.000000     0.000000     0.000000     0.222825
   11     1.000000   180.000000     0.866025     0.500001     0.000000     0.000000     0.000000     0.222825
   12     1.000000   180.000000     0.866025    -0.500001     0.000000     0.000000     0.000001     0.222825

 Subroutine IBZKPT returns following result:

 Found     19 irreducible k-points:

 Following reciprocal coordinates:
            Coordinates               Weight
  0.000000  0.000000  0.000000      1.000000
  0.083333 -0.000000  0.000000      6.000000
  0.166667  0.000000  0.000000      6.000000
  0.250000 -0.000000  0.000000      6.000000
  0.333333 -0.000000  0.000000      6.000000
  0.416667 -0.000000  0.000000      6.000000
  0.500000 -0.000000  0.000000      3.000000
  0.083333  0.083333  0.000000      6.000000
  0.166667  0.083333  0.000000     12.000000
  0.250000  0.083333  0.000000     12.000000
  0.333333  0.083333  0.000000     12.000000
  0.416667  0.083333  0.000000     12.000000
  0.166667  0.166667  0.000000      6.000000
  0.250000  0.166667  0.000000     12.000000
  0.333333  0.166667  0.000000     12.000000
  0.416667  0.166667  0.000000      6.000000
  0.250000  0.250000  0.000000      6.000000
  0.333333  0.250000  0.000000     12.000000
  0.333333  0.333333  0.000000      2.000000

 Following cartesian coordinates:
            Coordinates               Weight
  0.000000  0.000000  0.000000      1.000000
  0.033195 -0.019165  0.000000      6.000000
  0.066389 -0.038330  0.000000      6.000000
  0.099584 -0.057495  0.000000      6.000000
  0.132778 -0.076660  0.000000      6.000000
  0.165973 -0.095825  0.000000      6.000000
  0.199167 -0.114989  0.000000      3.000000
  0.066389  0.000000  0.000000      6.000000
  0.099584 -0.019165  0.000000     12.000000
  0.132778 -0.038330  0.000000     12.000000
  0.165973 -0.057495  0.000000     12.000000
  0.199167 -0.076660  0.000000     12.000000
  0.132778  0.000000  0.000000      6.000000
  0.165973 -0.019165  0.000000     12.000000
  0.199167 -0.038330  0.000000     12.000000
  0.232362 -0.057495  0.000000      6.000000
  0.199167  0.000000  0.000000      6.000000
  0.232362 -0.019165  0.000000     12.000000
  0.265556  0.000000  0.000000      2.000000

 SYSTEM =  hBN
 POSCAR =  B N

 Startparameter for this run:
   NWRITE =      2    write-flag & timer
   PREC   = accura    normal or accurate (medium, high low for compatibility)
   ISTART =      1    job   : 0-new  1-cont  2-samecut
   ICHARG =      1    charge: 1-file 2-atom 10-const
   ISPIN  =      2    spin polarized calculation?
   LNONCOLLINEAR =      F non collinear calculations
   LSORBIT =      F    spin-orbit coupling
   INIWAV =      1    electr: 0-lowe 1-rand  2-diag
   LASPH  =      F    aspherical Exc in radial PAW
   METAGGA=      F    non-selfconsistent MetaGGA calc.

 Electronic Relaxation 1
   ENCUT  =  650.0 eV  47.77 Ry    6.91 a.u.   5.22  5.22 31.15*2*pi/ulx,y,z
   ENINI  =  650.0     initial cutoff
   ENAUG  =  904.6 eV  augmentation charge cutoff
   NELM   =      1;   NELMIN=  2; NELMDL=  0     # of ELM steps
   EDIFF  = 0.1E-07   stopping-criterion for ELM
   LREAL  =      F    real-space projection
   NLSPLINE    = F    spline interpolate recip. space projectors
   LCOMPAT=      F    compatible to vasp.4.4
   GGA_COMPAT  = T    GGA compatible to vasp.4.4-vasp.4.6
   LMAXPAW     = -100 max onsite density
   LMAXMIX     =    2 max onsite mixed and CHGCAR
   VOSKOWN=      0    Vosko Wilk Nusair interpolation
   ROPT   =    0.00000   0.00000
 Ionic relaxation
   EDIFFG = -.1E-01   stopping-criterion for IOM
   NSW    =      0    number of steps for IOM
   NBLOCK =      1;   KBLOCK =      1    inner block; outer block
   IBRION =     -1    ionic relax: 0-MD 1-quasi-New 2-CG
   NFREE  =      1    steps in history (QN), initial steepest desc. (CG)
   ISIF   =      2    stress and relaxation
   IWAVPR =     10    prediction:  0-non 1-charg 2-wave 3-comb
   ISYM   =      2    0-nonsym 1-usesym 2-fastsym
   LCORR  =      T    Harris-Foulkes like correction to forces

   POTIM  = 0.5000    time-step for ionic-motion
   TEIN   =    0.0    initial temperature
   TEBEG  =    0.0;   TEEND  =   0.0 temperature during run
   SMASS  =  -3.00    Nose mass-parameter (am)
   estimated Nose-frequenzy (Omega)   =  0.10E-29 period in steps =****** mass=  -0.144E-27a.u.
   SCALEE = 1.0000    scale energy and forces
   NPACO  =    256;   APACO  = 16.0  distance and # of slots for P.C.
   PSTRESS=    0.0 pullay stress

  Mass of Ions in am
   POMASS =  10.81 14.00
  Ionic Valenz
   ZVAL   =   3.00  5.00
  Atomic Wigner-Seitz radii
  virtual crystal weights
   VCA    =   1.00  1.00
   NELECT =       8.0000    total number of electrons
   NUPDOWN=      -1.0000    fix difference up-down

 DOS related values:
   EMIN   =  10.00;   EMAX   =-10.00  energy-range for DOS
   EFERMI =   0.00
   ISMEAR =     0;   SIGMA  =   0.05  broadening in eV -4-tet -1-fermi 0-gaus

 Electronic relaxation 2 (details)
   IALGO  =     90    algorithm
   LDIAG  =      T    sub-space diagonalisation (order eigenvalues)
   LSUBROT=      F    optimize rotation matrix (better conditioning)
   TURBO    =      0    0=normal 1=particle mesh
   IRESTART =      0    0=no restart 2=restart with 2 vectors
   NREBOOT  =      0    no. of reboots
   NMIN     =      0    reboot dimension
   EREF     =   0.00    reference energy to select bands
   IMIX   =      4    mixing-type and parameters
     AMIX     =   0.40;   BMIX     =  1.00
     AMIX_MAG =   1.60;   BMIX_MAG =  1.00
     AMIN     =   0.10
     WC   =   100.;   INIMIX=   1;  MIXPRE=   1;  MAXMIX= -45

 Intra band minimization:
   WEIMIN = 0.0000     energy-eigenvalue tresh-hold
   EBREAK =  0.13E-10  absolut break condition
   DEPER  =   0.30     relativ break condition

   TIME   =   0.40     timestep for ELM

  volume/ion in A,a.u.               =      40.90       275.98
  Fermi-wavevector in a.u.,A,eV,Ry     =   0.754282  1.425387  7.740924  0.568942
  Thomas-Fermi vector in A             =   1.851914

 Write flags
   LWAVE        =      T    write WAVECAR
   LDOWNSAMPLE  =      F    k-point downsampling of WAVECAR
   LCHARG       =      T    write CHGCAR
   LVTOT        =      F    write LOCPOT, total local potential
   LVHAR        =      F    write LOCPOT, Hartree potential only
   LELF         =      F    write electronic localiz. function (ELF)
   LORBIT       =     11    0 simple, 1 ext, 2 COOP (PROOUT), +10 PAW based schemes

 Dipole corrections
   LMONO  =      F    monopole corrections only (constant potential shift)
   LDIPOL =      T    correct potential (dipole corrections)
   IDIPOL =      3    1-x, 2-y, 3-z, 4-all directions
   EPSILON=  1.0000000 bulk dielectric constant

 Exchange correlation treatment:
   GGA     =    --    GGA type
   VOSKOWN=      0    Vosko Wilk Nusair interpolation
   LHFCALC =     F    Hartree Fock is set to
   LHFONE  =     F    Hartree Fock one center treatment
[...]
   45.019910    0.933272    0.933272    0.925982   -0.000000   -0.000000   -0.000000
   46.270463    0.942359    0.942359    0.939539    0.000000   -0.000000    0.000000
   47.521016    0.941953    0.941953    0.944832    0.000000   -0.000000    0.000000
   48.771569    0.939382    0.939382    0.940169    0.000000   -0.000000   -0.000000
   50.022122    0.948157    0.948158    0.948705    0.000000   -0.000000    0.000000
   51.272675    0.949547    0.949547    0.926709    0.000000   -0.000000    0.000000
   52.523228    0.951731    0.951731    0.942355    0.000000    0.000000    0.000000
   53.773781    0.953839    0.953839    0.944007   -0.000000    0.000000    0.000000
   55.024334    0.958866    0.958866    0.953555    0.000000    0.000000   -0.000000
   56.274887    0.956545    0.956545    0.956346    0.000000    0.000000   -0.000000
   57.525440    0.959893    0.959893    0.953928   -0.000000   -0.000000    0.000000
   58.775993    0.961901    0.961902    0.962213    0.000000   -0.000000    0.000000
   60.026546    0.963045    0.963046    0.959710    0.000000    0.000000   -0.000000
   61.277099    0.963004    0.963004    0.960449    0.000000    0.000000   -0.000000
   62.527652    0.965194    0.965194    0.958263    0.000000    0.000000    0.000000
   63.778205    0.966003    0.966003    0.961638   -0.000000   -0.000000    0.000000
   65.028758    0.964962    0.964962    0.963067    0.000000   -0.000000    0.000000
   66.279311    0.967279    0.967279    0.968424    0.000000    0.000000    0.000000
   67.529864    0.967543    0.967543    0.969809   -0.000000   -0.000000    0.000000
   68.780417    0.968920    0.968921    0.967641   -0.000000   -0.000000    0.000000
   70.030970    0.969907    0.969907    0.972361   -0.000000   -0.000000   -0.000000
   71.281523    0.971555    0.971555    0.970356    0.000000    0.000000    0.000000
   72.532076    0.971539    0.971540    0.972439    0.000000    0.000000    0.000000
   73.782630    0.975035    0.975035    0.972205   -0.000000   -0.000000    0.000000
[...]
  131.308069    0.991921    0.991921    0.991776    0.000000   -0.000000    0.000000
  132.558623    0.992094    0.992094    0.991959    0.000000   -0.000000    0.000000
  133.809176    0.992260    0.992260    0.992135    0.000000   -0.000000    0.000000
  135.059729    0.992420    0.992420    0.992303    0.000000   -0.000000    0.000000
  136.310282    0.992575    0.992575    0.992466    0.000000   -0.000000    0.000000
  137.560835    0.992724    0.992724    0.992622    0.000000   -0.000000    0.000000
  138.811388    0.992869    0.992869    0.992773    0.000000   -0.000000    0.000000
  140.061941    0.993008    0.993008    0.992918    0.000000   -0.000000    0.000000
  141.312494    0.993144    0.993144    0.993059    0.000000   -0.000000    0.000000
  142.563047    0.993274    0.993274    0.993195    0.000000   -0.000000    0.000000
  143.813600    0.993401    0.993401    0.993327    0.000000   -0.000000    0.000000
  145.064153    0.993524    0.993524    0.993455    0.000000   -0.000000    0.000000
  146.314706    0.993644    0.993644    0.993579    0.000000   -0.000000    0.000000
  147.565259    0.993759    0.993760    0.993699    0.000000   -0.000000    0.000000
  148.815812    0.993872    0.993872    0.993815    0.000000   -0.000000    0.000000

  frequency dependent IMAGINARY DIELECTRIC FUNCTION (independent particle, no local field effects) current-current (2nd set in vasprun.xml)
     E(ev)      X         Y         Z        XY        YZ        ZX
    0.000000    0.000000    0.000000    0.000000    0.000000    0.000000    0.000000
    1.250553    0.000000    0.000000    0.000000    0.000000    0.000000    0.000000
    2.501106    0.000000    0.000000    0.000000    0.000000    0.000000    0.000000
    3.751659    0.000000    0.000000    0.000000    0.000000    0.000000    0.000000
    5.002212    0.000023    0.000023    0.000000    0.000000    0.000000    0.000000
    6.252765    0.000000    0.000000    0.000000    0.000000    0.000000    0.000000
    7.503318    0.075808    0.075808    0.000000    0.000000   -0.000000    0.000000
    8.753871    0.011207    0.011207    0.000000    0.000000   -0.000000    0.000000
   10.004424    0.032763    0.032763    2.143225    0.000000    0.000000   -0.000000
   11.254977    0.043341    0.043341    0.042027    0.000000    0.000000   -0.000000
   12.505530    0.013432    0.013432    0.656212    0.000000    0.000000    0.000000
   13.756083    1.554099    1.554094    1.352796    0.000000    0.000000    0.000000
   15.006637    0.007112    0.007112    1.462807    0.000000    0.000000    0.000000
   16.257190    1.562301    1.562297    0.022637    0.000000    0.000000    0.000000
   17.507743    0.190256    0.190255    0.050354    0.000000    0.000000    0.000000
   18.758296    0.160175    0.160174    0.133080    0.000000    0.000000    0.000000
   20.008849    0.486788    0.486786    0.108408    0.000000    0.000000    0.000000
   21.259402    0.373673    0.373672    0.088954    0.000000    0.000000    0.000000
   22.509955    0.034762    0.034762    0.415170    0.000000    0.000000    0.000000
   23.760508    0.047369    0.047368    0.006036   -0.000000    0.000000   -0.000000
   25.011061    0.028537    0.028537    0.477198    0.000000    0.000000    0.000000
   26.261614    0.120482    0.120481    0.038165    0.000000    0.000000    0.000000
   27.512167    0.044933    0.044933    0.096138    0.000000    0.000000   -0.000000
   28.762720    0.099276    0.099276    0.245119    0.000000   -0.000000    0.000000
   30.013273    0.019539    0.019539    0.336275    0.000000   -0.000000    0.000000
   31.263826    0.068073    0.068073    0.055162    0.000000    0.000000   -0.000000
   32.514379    0.011327    0.011327    0.012837    0.000000   -0.000000    0.000000
   33.764932    0.159320    0.159319    0.092405    0.000000    0.000000   -0.000000
   35.015485    0.030643    0.030643    0.168475    0.000000    0.000000    0.000000
   36.266038    0.062959    0.062959    0.013155    0.000000    0.000000    0.000000
   37.516591    0.023917    0.023917    0.055009    0.000000    0.000000    0.000000
   38.767144    0.027916    0.027916    0.042119    0.000000    0.000000    0.000000
   40.017697    0.012625    0.012625    0.099759    0.000000   -0.000000    0.000000
   41.268250    0.018789    0.018789    0.042677    0.000000    0.000000    0.000000
   42.518803    0.010044    0.010044    0.045309    0.000000    0.000000    0.000000
   43.769356    0.016998    0.016998    0.020692    0.000000   -0.000000    0.000000
   45.019910    0.009889    0.009889    0.038080    0.000000   -0.000000    0.000000
   46.270463    0.019084    0.019084    0.027043    0.000000   -0.000000   -0.000000
   47.521016    0.021981    0.021981    0.012819    0.000000   -0.000000    0.000000
   48.771569    0.010553    0.010553    0.022990    0.000000   -0.000000   -0.000000
   50.022122    0.010370    0.010370    0.038785    0.000000    0.000000    0.000000
   51.272675    0.015155    0.015155    0.023856    0.000000    0.000000    0.000000
   52.523228    0.008751    0.008751    0.012805    0.000000    0.000000    0.000000
   53.773781    0.005390    0.005390    0.031128    0.000000    0.000000    0.000000
   55.024334    0.013344    0.013344    0.012410    0.000000    0.000000    0.000000
   56.274887    0.009983    0.009983    0.005986   -0.000000    0.000000    0.000000
   57.525440    0.010851    0.010851    0.023612    0.000000    0.000000    0.000000
   58.775993    0.006325    0.006325    0.008431    0.000000    0.000000    0.000000
   60.026546    0.010377    0.010377    0.025351    0.000000    0.000000    0.000000
   61.277099    0.010900    0.010900    0.034093    0.000000    0.000000    0.000000
   62.527652    0.006379    0.006379    0.013531    0.000000    0.000000    0.000000
   63.778205    0.013591    0.013591    0.008794    0.000000   -0.000000    0.000000
   65.028758    0.006295    0.006295    0.004463    0.000000   -0.000000    0.000000
   66.279311    0.006430    0.006430    0.010975    0.000000   -0.000000    0.000000
   67.529864    0.003517    0.003517    0.006530    0.000000    0.000000    0.000000
   68.780417    0.005053    0.005053    0.012242    0.000000    0.000000    0.000000
   70.030970    0.006371    0.006371    0.007014    0.000000    0.000000   -0.000000
   71.281523    0.002951    0.002951    0.006976    0.000000   -0.000000    0.000000
   72.532076    0.003555    0.003555    0.007908    0.000000    0.000000    0.000000
   73.782630    0.005365    0.005365    0.007755    0.000000    0.000000   -0.000000
[...]
  131.308069    0.000000    0.000000    0.000000    0.000000    0.000000    0.000000
  132.558623    0.000000    0.000000    0.000000    0.000000    0.000000    0.000000
  133.809176    0.000000    0.000000    0.000000    0.000000    0.000000    0.000000
  135.059729    0.000000    0.000000    0.000000    0.000000    0.000000    0.000000
  136.310282    0.000000    0.000000    0.000000    0.000000    0.000000    0.000000
  137.560835    0.000000    0.000000    0.000000    0.000000    0.000000    0.000000
  138.811388    0.000000    0.000000    0.000000    0.000000    0.000000    0.000000
  140.061941    0.000000    0.000000    0.000000    0.000000    0.000000    0.000000
  141.312494    0.000000    0.000000    0.000000    0.000000    0.000000    0.000000
  142.563047    0.000000    0.000000    0.000000    0.000000    0.000000    0.000000
  143.813600    0.000000    0.000000    0.000000    0.000000    0.000000    0.000000
  145.064153    0.000000    0.000000    0.000000    0.000000    0.000000    0.000000
  146.314706    0.000000    0.000000    0.000000    0.000000    0.000000    0.000000
  147.565259    0.000000    0.000000    0.000000    0.000000    0.000000    0.000000
  148.815812    0.000000    0.000000    0.000000    0.000000    0.000000    0.000000

  frequency dependent      REAL DIELECTRIC FUNCTION (independent particle, no local field effects) current-current (2nd set in vasprun.xml)
     E(ev)        X           Y           Z          XY          YZ          ZX
    0.000000    1.856664    1.857639    1.380035    0.000000    0.000000   -0.000000
    1.250553    1.885447    1.885447    1.383635    0.000000    0.000000   -0.000000
    2.501106    1.990886    1.990883    1.394870    0.000000    0.000000   -0.000000
    3.751659    2.300597    2.300594    1.415590    0.000000    0.000000   -0.000000
    5.002212    3.764205    3.764197    1.449819    0.000000    0.000000   -0.000000
    6.252765    0.566692    0.566694    1.506549   -0.000000    0.000000   -0.000000
    7.503318    0.761855    0.761856    1.610152    0.000000    0.000000   -0.000000
    8.753871    1.245192    1.245191    1.849834    0.000000    0.000000    0.000000
   10.004424    1.268908    1.268908    2.632486    0.000000   -0.000000   -0.000000
   11.254977    1.507845    1.507844    1.083546    0.000000   -0.000000    0.000000
   12.505530    2.172607    2.172604    1.251974    0.000000   -0.000000    0.000000
   13.756083    1.172765    1.172765    0.586550   -0.000000    0.000000    0.000000
   15.006637   -0.112097   -0.112093    0.797161   -0.000000   -0.000000   -0.000000
   16.257190    0.640853    0.640854    0.872201   -0.000000    0.000000   -0.000000
   17.507743    0.663691    0.663692    0.803918   -0.000000   -0.000000   -0.000000
   18.758296    0.547309    0.547310    1.053411    0.000000   -0.000000   -0.000000
   20.008849    0.655038    0.655039    1.052332   -0.000000   -0.000000   -0.000000
   21.259402    0.680780    0.680781    0.828637    0.000000   -0.000000    0.000000
   22.509955    0.681298    0.681299    0.859162   -0.000000   -0.000000   -0.000000
   23.760508    0.730599    0.730600    0.955081    0.000000    0.000000    0.000000
   25.011061    0.766229    0.766230    0.881209   -0.000000    0.000000    0.000000
   26.261614    0.788580    0.788581    0.963471    0.000000   -0.000000   -0.000000
   27.512167    0.819870    0.819871    0.903214    0.000000   -0.000000   -0.000000
   28.762720    0.849486    0.849487    0.855658    0.000000   -0.000000    0.000000
   30.013273    0.853789    0.853790    0.873141   -0.000000   -0.000000    0.000000
   31.263826    0.873666    0.873666    0.884796   -0.000000   -0.000000   -0.000000
   32.514379    0.909295    0.909295    0.905132   -0.000000   -0.000000    0.000000
   33.764932    0.912833    0.912833    0.875821    0.000000   -0.000000   -0.000000
   35.015485    0.875896    0.875896    0.891442    0.000000   -0.000000    0.000000
   36.266038    0.881737    0.881737    0.885452    0.000000    0.000000    0.000000
   37.516591    0.877283    0.877284    0.905661    0.000000   -0.000000    0.000000
   38.767144    0.898111    0.898112    0.918349   -0.000000   -0.000000    0.000000
   40.017697    0.912284    0.912284    0.946471    0.000000    0.000000    0.000000
   41.268250    0.923403    0.923404    0.894860    0.000000    0.000000    0.000000
   42.518803    0.934715    0.934715    0.896758    0.000000   -0.000000    0.000000
   43.769356    0.937223    0.937223    0.911833    0.000000   -0.000000   -0.000000
   45.019910    0.933219    0.933219    0.925799   -0.000000    0.000000    0.000000
   46.270463    0.942297    0.942298    0.939438    0.000000   -0.000000    0.000000
   47.521016    0.941868    0.941869    0.944748    0.000000   -0.000000    0.000000
   48.771569    0.939330    0.939331    0.940068   -0.000000   -0.000000    0.000000
   50.022122    0.948120    0.948120    0.948573   -0.000000    0.000000    0.000000
   51.272675    0.949503    0.949503    0.926553    0.000000   -0.000000   -0.000000
   52.523228    0.951697    0.951698    0.942291   -0.000000    0.000000    0.000000
   53.773781    0.953812    0.953812    0.943922   -0.000000   -0.000000    0.000000
   55.024334    0.958830    0.958830    0.953507    0.000000   -0.000000    0.000000
   56.274887    0.956516    0.956516    0.956306   -0.000000    0.000000    0.000000
   57.525440    0.959865    0.959865    0.953864   -0.000000   -0.000000    0.000000
   58.775993    0.961882    0.961882    0.962169   -0.000000   -0.000000    0.000000
   60.026546    0.963021    0.963021    0.959647    0.000000   -0.000000    0.000000
   61.277099    0.962969    0.962969    0.960369   -0.000000   -0.000000    0.000000
   62.527652    0.965173    0.965173    0.958217    0.000000   -0.000000    0.000000
   63.778205    0.965973    0.965974    0.961613   -0.000000   -0.000000    0.000000
   65.028758    0.964944    0.964944    0.963050    0.000000   -0.000000    0.000000
   66.279311    0.967266    0.967266    0.968396    0.000000   -0.000000    0.000000
   67.529864    0.967532    0.967532    0.969787   -0.000000   -0.000000    0.000000
   68.780417    0.968908    0.968908    0.967611    0.000000    0.000000    0.000000
   70.030970    0.969898    0.969898    0.972341   -0.000000   -0.000000    0.000000
   71.281523    0.971550    0.971550    0.970337   -0.000000   -0.000000    0.000000
   72.532076    0.971534    0.971534    0.972417   -0.000000   -0.000000    0.000000
   73.782630    0.975028    0.975028    0.972181   -0.000000   -0.000000    0.000000
[...]
  131.308069    0.991922    0.991923    0.991777   -0.000000   -0.000000    0.000000
  132.558623    0.992095    0.992095    0.991959   -0.000000   -0.000000    0.000000
  133.809176    0.992262    0.992262    0.992135   -0.000000   -0.000000    0.000000
  135.059729    0.992422    0.992422    0.992303   -0.000000   -0.000000    0.000000
  136.310282    0.992577    0.992577    0.992466   -0.000000   -0.000000    0.000000
  137.560835    0.992726    0.992726    0.992622   -0.000000   -0.000000    0.000000
  138.811388    0.992870    0.992870    0.992773   -0.000000   -0.000000    0.000000
  140.061941    0.993010    0.993010    0.992919   -0.000000   -0.000000    0.000000
  141.312494    0.993145    0.993145    0.993059   -0.000000   -0.000000    0.000000
  142.563047    0.993276    0.993276    0.993196   -0.000000   -0.000000    0.000000
  143.813600    0.993403    0.993403    0.993327   -0.000000   -0.000000    0.000000
  145.064153    0.993526    0.993526    0.993455   -0.000000   -0.000000    0.000000
  146.314706    0.993645    0.993645    0.993579   -0.000000   -0.000000    0.000000
  147.565259    0.993761    0.993761    0.993699   -0.000000   -0.000000    0.000000
  148.815812    0.993873    0.993873    0.993815   -0.000000   -0.000000    0.000000

 The outermost node in the dielectric function lies at epsilon=  15.1

 total charge

[...]

 magnetization (x)

# of ion       s       p       d       tot
    1       -0.000  -0.000   0.000  -0.000
    2        0.000   0.000   0.000   0.000
tot          0.000   0.000   0.000   0.000